PROCAR lm decomposed
# of k-points:    1         # of bands:    2         # of ions:    1

 k-point     1 :    0.00000000 0.00000000 0.00000000     weight = 1.00000000

band     1 # energy   0.00000000 # occ.  2.00000000

ion      s     py     pz     px    dxy    dyz    dz2    dxz  x2-y2    tot
    1  1.000  0.000  0.000  0.000  0.000  0.000  0.000  0.000  0.000  1.000
tot    1.000  0.000  0.000  0.000  0.000  0.000  0.000  0.000  0.000  1.000

band     2 # energy   0.50000000 # occ.  0.00000000

ion      s     py     pz     px    dxy    dyz    dz2    dxz  x2-y2    tot
    1  0.000  1.000  0.000  0.000  0.000  0.000  0.000  0.000  0.000  1.000
tot    0.000  1.000  0.000  0.000  0.000  0.000  0.000  0.000  0.000  1.000
