 running   64 mpi-ranks, on    1 nodes
 distrk:  each k-point on   64 cores,    1 groups
 distr:  one band on    8 cores,    8 groups
 vasp.6.5.1 10Mar25 (build Nov 21 2025 20:05:11) gamma-only                     
  
 POSCAR found type information on POSCAR MoSe
 POSCAR found :  2 types and      36 ions
 scaLAPACK will be used
 -----------------------------------------------------------------------------
|                                                                             |
|           W    W    AA    RRRRR   N    N  II  N    N   GGGG   !!!           |
|           W    W   A  A   R    R  NN   N  II  NN   N  G    G  !!!           |
|           W    W  A    A  R    R  N N  N  II  N N  N  G       !!!           |
|           W WW W  AAAAAA  RRRRR   N  N N  II  N  N N  G  GGG   !            |
|           WW  WW  A    A  R   R   N   NN  II  N   NN  G    G                |
|           W    W  A    A  R    R  N    N  II  N    N   GGGG   !!!           |
|                                                                             |
|     The value NCORE = 4 specified in the INCAR file was overwritten,        |
|     because it was not compatible with the 64 processes available:          |
|     NCORE = 8                                                               |
|     was used instead, please check that this makes sense for your           |
|     machine.                                                                |
|                                                                             |
 -----------------------------------------------------------------------------

 -----------------------------------------------------------------------------
|                                                                             |
|               ----> ADVICE to this user running VASP <----                  |
|                                                                             |
|     You have a (more or less) 'large supercell' and for larger cells it     |
|     might be more efficient to use real-space projection operators.         |
|     Therefore, try LREAL= Auto in the INCAR file.                           |
|     Mind: For very accurate calculation, you might also keep the            |
|     reciprocal projection scheme (i.e. LREAL=.FALSE.).                      |
|                                                                             |
 -----------------------------------------------------------------------------

 LDA part: xc-table for (Slater+PW92), standard interpolation
 POSCAR, INCAR and KPOINTS ok, starting setup
 FFT: planning ... GRIDC
 FFT: planning ... GRID_SOFT
 FFT: planning ... GRID
 WAVECAR not read
 entering main loop
       N       E                     dE             d eps       ncg     rms          rms(c)
DAV:   1     0.146237414148E+04    0.14624E+04   -0.58296E+04   272   0.681E+02
DAV:   2    -0.800652389963E+02   -0.15424E+04   -0.15160E+04   512   0.196E+02
DAV:   3    -0.246581123917E+03   -0.16652E+03   -0.16510E+03   320   0.742E+01
DAV:   4    -0.252010039979E+03   -0.54289E+01   -0.54035E+01   384   0.139E+01
DAV:   5    -0.252141037522E+03   -0.13100E+00   -0.13079E+00   384   0.223E+00    0.675E+01
DAV:   6    -0.244081848063E+03    0.80592E+01   -0.93585E+01   352   0.161E+01    0.222E+01
DAV:   7    -0.242565393975E+03    0.15165E+01   -0.76145E+01   376   0.153E+01    0.207E+01
DAV:   8    -0.239163069750E+03    0.34023E+01   -0.12294E+01   416   0.650E+00    0.458E+00
DAV:   9    -0.239127049802E+03    0.36020E-01   -0.15906E+00   416   0.223E+00    0.154E+00
DAV:  10    -0.239104780152E+03    0.22270E-01   -0.24797E-01   416   0.811E-01    0.105E+00
DAV:  11    -0.239084319172E+03    0.20461E-01   -0.10665E-01   416   0.533E-01    0.368E-01
DAV:  12    -0.239076871320E+03    0.74479E-02   -0.23777E-02   416   0.268E-01    0.240E-01
DAV:  13    -0.239074065700E+03    0.28056E-02   -0.11791E-02   416   0.182E-01    0.175E-01
DAV:  14    -0.239072759158E+03    0.13065E-02   -0.28231E-03   352   0.905E-02    0.167E-01
DAV:  15    -0.239072892406E+03   -0.13325E-03   -0.31080E-03   384   0.917E-02    0.844E-02
DAV:  16    -0.239073639018E+03   -0.74661E-03   -0.17083E-03   416   0.695E-02    0.930E-02
DAV:  17    -0.239075326092E+03   -0.16871E-02   -0.28451E-04   320   0.303E-02    0.839E-02
DAV:  18    -0.239076784443E+03   -0.14584E-02   -0.22138E-04   352   0.246E-02    0.317E-02
DAV:  19    -0.239077454904E+03   -0.67046E-03   -0.12127E-04   416   0.188E-02    0.148E-02
DAV:  20    -0.239078210693E+03   -0.75579E-03   -0.43695E-05   352   0.111E-02    0.199E-02
DAV:  21    -0.239078537265E+03   -0.32657E-03   -0.21660E-05   352   0.759E-03    0.171E-02
DAV:  22    -0.239078687758E+03   -0.15049E-03   -0.99579E-06   320   0.517E-03    0.105E-02
DAV:  23    -0.239078755969E+03   -0.68211E-04   -0.38157E-06   256   0.319E-03    0.418E-03
DAV:  24    -0.239078776392E+03   -0.20423E-04   -0.12582E-06   256   0.183E-03    0.176E-03
DAV:  25    -0.239078783118E+03   -0.67267E-05   -0.43180E-07   192   0.117E-03    0.718E-04
DAV:  26    -0.239078785291E+03   -0.21729E-05   -0.15123E-07   192   0.653E-04    0.652E-04
DAV:  27    -0.239078785827E+03   -0.53632E-06   -0.41218E-08   160   0.347E-04
   1 F= -.23907879E+03 E0= -.23907879E+03  d E =-.203935E-11
 writing wavefunctions
