MoSe2                                   
           1
     9.960000    5.750409    0.000000
    -4.980000    8.625613    0.000000
     0.000000    0.000000   15.000000
   Mo   Se
    12    24
Direct configuration=     1
   0.91450107  0.83333156  0.50045437
   0.66449291  0.66666839  0.50045435
   0.91450106  0.16666843  0.50045437
   0.91450467  0.49999998  0.50045487
   0.16449293  0.66666842  0.50045435
   0.16449292  0.33333153  0.50045434
   0.16449657  0.00000002  0.50045486
   0.66449288  0.33333157  0.50045435
   0.66449657  0.00000002  0.50045486
   0.41450104  0.16666848  0.50045437
   0.41450468  0.49999996  0.50045487
   0.41450106  0.83333154  0.50045437
   0.74723992  0.50000002  0.61162802
   0.74722619  0.83334121  0.38928152
   0.74723031  0.83333967  0.61162885
   0.49720529  0.66666047  0.61163143
   0.49720109  0.66665893  0.38927897
   0.74723032  0.16666031  0.61162886
   0.74722619  0.16665877  0.38928152
   0.74723529  0.50000001  0.38928482
   0.24722620  0.83334123  0.38928152
   0.24723032  0.83333969  0.61162886
   0.49721027  0.00000000  0.38928226
   0.49721497  0.00000000  0.61163061
   0.49720528  0.33333956  0.61163143
   0.49720108  0.33334110  0.38927898
   0.24723530  0.50000001  0.38928481
   0.24723992  0.50000002  0.61162801
   0.99720527  0.66666048  0.61163143
   0.24722620  0.16665875  0.38928153
   0.24723032  0.16666029  0.61162885
   0.99720108  0.66665894  0.38927897
   0.99720108  0.33334109  0.38927897
   0.99720528  0.33333955  0.61163143
   0.99721497  1.00000000  0.61163060
   0.99721027  0.99999999  0.38928227
