Mo Se                                   
   1.00000000000000     
     9.9599999999999991    5.7504086811286799    0.0000000000000000
    -4.9799999999999995    8.6256130216930202    0.0000000000000000
     0.0000000000000000    0.0000000000000000   15.0000000000000000
   Mo   Se
    12    24
Direct
     0.9145010670143563    0.8333315584765089    0.5004543659250160
     0.6644929145378100    0.6666683915404406    0.5004543453399322
     0.9145010609289912    0.1666684344757527    0.5004543657370135
     0.9145046671031736    0.4999999804045174    0.5004548718645907
     0.1644929289405965    0.6666684227667545    0.5004543454552461
     0.1644929247804541    0.3333315332496483    0.5004543446852239
     0.1644965709722683    0.0000000229631354    0.5004548568582905
     0.6644928823298102    0.3333315696741863    0.5004543474286649
     0.6644965741731710    0.0000000194770351    0.5004548550551746
     0.4145010374085629    0.1666684834227610    0.5004543672306667
     0.4145046848533127    0.4999999560025117    0.5004548738233154
     0.4145010561436635    0.8333315362769724    0.5004543652202003
     0.7472399195808705    0.5000000157701194    0.6116280166691155
     0.7472261852656032    0.8333412124158954    0.3892815193193542
     0.7472303098256461    0.8333396747837654    0.6116288528084510
     0.4972052879492068    0.6666604675557508    0.6116314288069731
     0.4972010881428304    0.6666589253608137    0.3892789702285882
     0.7472303223505961    0.1666603099453283    0.6116288550491191
     0.7472261944679701    0.1666587724527133    0.3892815198682698
     0.7472352928453958    0.5000000116316343    0.3892848153253325
     0.2472261981037462    0.8333412261518802    0.3892815181287048
     0.2472303224461143    0.8333396933715420    0.6116288586990564
     0.4972102679418668    0.0000000039716426    0.3892822627697186
     0.4972149678049504    0.0000000024347528    0.6116306083590715
     0.4972052766321227    0.3333395567480366    0.6116314277491171
     0.4972010829125466    0.3333410970356283    0.3892789756216928
     0.2472353014879900    0.5000000121950237    0.3892848149918038
     0.2472399178982201    0.5000000150726578    0.6116280132806367
     0.9972052725583112    0.6666604753873600    0.6116314306971802
     0.2472262033690384    0.1666587544017659    0.3892815306557509
     0.2472303226877770    0.1666602939720434    0.6116288477177108
     0.9972010787129406    0.6666589373734695    0.3892789657900195
     0.9972010831809683    0.3333410898992284    0.3892789664287264
     0.9972052783042216    0.3333395529505268    0.6116314274720196
     0.9972149678976194    0.9999999958745818    0.6116306034748220
     0.9972102674308942    0.9999999945135869    0.3892822693610611
 
  0.00000000E+00  0.00000000E+00  0.00000000E+00
  0.00000000E+00  0.00000000E+00  0.00000000E+00
  0.00000000E+00  0.00000000E+00  0.00000000E+00
  0.00000000E+00  0.00000000E+00  0.00000000E+00
  0.00000000E+00  0.00000000E+00  0.00000000E+00
  0.00000000E+00  0.00000000E+00  0.00000000E+00
  0.00000000E+00  0.00000000E+00  0.00000000E+00
  0.00000000E+00  0.00000000E+00  0.00000000E+00
  0.00000000E+00  0.00000000E+00  0.00000000E+00
  0.00000000E+00  0.00000000E+00  0.00000000E+00
  0.00000000E+00  0.00000000E+00  0.00000000E+00
  0.00000000E+00  0.00000000E+00  0.00000000E+00
  0.00000000E+00  0.00000000E+00  0.00000000E+00
  0.00000000E+00  0.00000000E+00  0.00000000E+00
  0.00000000E+00  0.00000000E+00  0.00000000E+00
  0.00000000E+00  0.00000000E+00  0.00000000E+00
  0.00000000E+00  0.00000000E+00  0.00000000E+00
  0.00000000E+00  0.00000000E+00  0.00000000E+00
  0.00000000E+00  0.00000000E+00  0.00000000E+00
  0.00000000E+00  0.00000000E+00  0.00000000E+00
  0.00000000E+00  0.00000000E+00  0.00000000E+00
  0.00000000E+00  0.00000000E+00  0.00000000E+00
  0.00000000E+00  0.00000000E+00  0.00000000E+00
  0.00000000E+00  0.00000000E+00  0.00000000E+00
  0.00000000E+00  0.00000000E+00  0.00000000E+00
  0.00000000E+00  0.00000000E+00  0.00000000E+00
  0.00000000E+00  0.00000000E+00  0.00000000E+00
  0.00000000E+00  0.00000000E+00  0.00000000E+00
  0.00000000E+00  0.00000000E+00  0.00000000E+00
  0.00000000E+00  0.00000000E+00  0.00000000E+00
  0.00000000E+00  0.00000000E+00  0.00000000E+00
  0.00000000E+00  0.00000000E+00  0.00000000E+00
  0.00000000E+00  0.00000000E+00  0.00000000E+00
  0.00000000E+00  0.00000000E+00  0.00000000E+00
  0.00000000E+00  0.00000000E+00  0.00000000E+00
  0.00000000E+00  0.00000000E+00  0.00000000E+00
