PROCAR lm decomposed
# of k-points:    1         # of bands:  152         # of ions:   36

 k-point     1 :    0.00000000 0.00000000 0.00000000     weight = 1.00000000

band     1 # energy  -15.30443331 # occ.  1.00000000
 
ion      s     py     pz     px    dxy    dyz    dz2    dxz  x2-y2    tot
    1  0.008  0.000  0.000  0.000  0.000  0.000  0.000  0.000  0.000  0.008
    2  0.008  0.000  0.000  0.000  0.000  0.000  0.000  0.000  0.000  0.008
    3  0.008  0.000  0.000  0.000  0.000  0.000  0.000  0.000  0.000  0.008
    4  0.008  0.000  0.000  0.000  0.000  0.000  0.000  0.000  0.000  0.008
    5  0.008  0.000  0.000  0.000  0.000  0.000  0.000  0.000  0.000  0.008
    6  0.008  0.000  0.000  0.000  0.000  0.000  0.000  0.000  0.000  0.008
    7  0.008  0.000  0.000  0.000  0.000  0.000  0.000  0.000  0.000  0.008
    8  0.008  0.000  0.000  0.000  0.000  0.000  0.000  0.000  0.000  0.008
    9  0.008  0.000  0.000  0.000  0.000  0.000  0.000  0.000  0.000  0.008
   10  0.008  0.000  0.000  0.000  0.000  0.000  0.000  0.000  0.000  0.008
   11  0.008  0.000  0.000  0.000  0.000  0.000  0.000  0.000  0.000  0.008
   12  0.008  0.000  0.000  0.000  0.000  0.000  0.000  0.000  0.000  0.008
   13  0.026  0.000  0.000  0.000  0.000  0.000  0.000  0.000  0.000  0.026
   14  0.026  0.000  0.000  0.000  0.000  0.000  0.000  0.000  0.000  0.026
   15  0.026  0.000  0.000  0.000  0.000  0.000  0.000  0.000  0.000  0.026
   16  0.026  0.000  0.000  0.000  0.000  0.000  0.000  0.000  0.000  0.026
   17  0.026  0.000  0.000  0.000  0.000  0.000  0.000  0.000  0.000  0.026
   18  0.026  0.000  0.000  0.000  0.000  0.000  0.000  0.000  0.000  0.026
   19  0.026  0.000  0.000  0.000  0.000  0.000  0.000  0.000  0.000  0.026
   20  0.026  0.000  0.000  0.000  0.000  0.000  0.000  0.000  0.000  0.026
   21  0.026  0.000  0.000  0.000  0.000  0.000  0.000  0.000  0.000  0.026
   22  0.026  0.000  0.000  0.000  0.000  0.000  0.000  0.000  0.000  0.026
   23  0.026  0.000  0.000  0.000  0.000  0.000  0.000  0.000  0.000  0.026
   24  0.026  0.000  0.000  0.000  0.000  0.000  0.000  0.000  0.000  0.026
   25  0.026  0.000  0.000  0.000  0.000  0.000  0.000  0.000  0.000  0.026
   26  0.026  0.000  0.000  0.000  0.000  0.000  0.000  0.000  0.000  0.026
   27  0.026  0.000  0.000  0.000  0.000  0.000  0.000  0.000  0.000  0.026
   28  0.026  0.000  0.000  0.000  0.000  0.000  0.000  0.000  0.000  0.026
   29  0.026  0.000  0.000  0.000  0.000  0.000  0.000  0.000  0.000  0.026
   30  0.026  0.000  0.000  0.000  0.000  0.000  0.000  0.000  0.000  0.026
   31  0.026  0.000  0.000  0.000  0.000  0.000  0.000  0.000  0.000  0.026
   32  0.026  0.000  0.000  0.000  0.000  0.000  0.000  0.000  0.000  0.026
   33  0.026  0.000  0.000  0.000  0.000  0.000  0.000  0.000  0.000  0.026
   34  0.026  0.000  0.000  0.000  0.000  0.000  0.000  0.000  0.000  0.026
   35  0.026  0.000  0.000  0.000  0.000  0.000  0.000  0.000  0.000  0.026
   36  0.026  0.000  0.000  0.000  0.000  0.000  0.000  0.000  0.000  0.026
tot    0.709  0.000  0.008  0.000  0.000  0.000  0.001  0.000  0.000  0.717
 
band     2 # energy  -14.57813764 # occ.  1.00000000
 
ion      s     py     pz     px    dxy    dyz    dz2    dxz  x2-y2    tot
    1  0.010  0.000  0.000  0.000  0.000  0.000  0.000  0.000  0.000  0.010
    2  0.000  0.001  0.000  0.002  0.001  0.000  0.000  0.000  0.000  0.004
    3  0.010  0.000  0.000  0.000  0.000  0.000  0.000  0.000  0.000  0.010
    4  0.010  0.000  0.000  0.000  0.000  0.000  0.000  0.000  0.000  0.010
    5  0.000  0.001  0.000  0.002  0.001  0.000  0.000  0.000  0.000  0.004
    6  0.000  0.001  0.000  0.002  0.001  0.000  0.000  0.000  0.000  0.004
    7  0.000  0.001  0.000  0.002  0.001  0.000  0.000  0.000  0.000  0.004
    8  0.000  0.001  0.000  0.002  0.001  0.000  0.000  0.000  0.000  0.004
    9  0.000  0.001  0.000  0.002  0.001  0.000  0.000  0.000  0.000  0.004
   10  0.010  0.000  0.000  0.000  0.000  0.000  0.000  0.000  0.000  0.010
   11  0.010  0.000  0.000  0.000  0.000  0.000  0.000  0.000  0.000  0.010
   12  0.010  0.000  0.000  0.000  0.000  0.000  0.000  0.000  0.000  0.010
   13  0.021  0.000  0.000  0.000  0.000  0.000  0.000  0.000  0.000  0.022
   14  0.021  0.000  0.000  0.000  0.000  0.000  0.000  0.000  0.000  0.022
   15  0.021  0.000  0.000  0.000  0.000  0.000  0.000  0.000  0.000  0.022
   16  0.032  0.000  0.000  0.000  0.000  0.000  0.000  0.000  0.000  0.033
   17  0.032  0.000  0.000  0.000  0.000  0.000  0.000  0.000  0.000  0.033
   18  0.021  0.000  0.000  0.000  0.000  0.000  0.000  0.000  0.000  0.022
   19  0.021  0.000  0.000  0.000  0.000  0.000  0.000  0.000  0.000  0.022
   20  0.021  0.000  0.000  0.000  0.000  0.000  0.000  0.000  0.000  0.022
   21  0.021  0.000  0.000  0.000  0.000  0.000  0.000  0.000  0.000  0.022
   22  0.021  0.000  0.000  0.000  0.000  0.000  0.000  0.000  0.000  0.022
   23  0.032  0.000  0.000  0.000  0.000  0.000  0.000  0.000  0.000  0.033
   24  0.032  0.000  0.000  0.000  0.000  0.000  0.000  0.000  0.000  0.033
   25  0.032  0.000  0.000  0.000  0.000  0.000  0.000  0.000  0.000  0.033
   26  0.032  0.000  0.000  0.000  0.000  0.000  0.000  0.000  0.000  0.033
   27  0.021  0.000  0.000  0.000  0.000  0.000  0.000  0.000  0.000  0.022
   28  0.021  0.000  0.000  0.000  0.000  0.000  0.000  0.000  0.000  0.022
   29  0.032  0.000  0.000  0.000  0.000  0.000  0.000  0.000  0.000  0.033
   30  0.021  0.000  0.000  0.000  0.000  0.000  0.000  0.000  0.000  0.022
   31  0.021  0.000  0.000  0.000  0.000  0.000  0.000  0.000  0.000  0.022
   32  0.032  0.000  0.000  0.000  0.000  0.000  0.000  0.000  0.000  0.033
   33  0.032  0.000  0.000  0.000  0.000  0.000  0.000  0.000  0.000  0.033
   34  0.032  0.000  0.000  0.000  0.000  0.000  0.000  0.000  0.000  0.033
   35  0.032  0.000  0.000  0.000  0.000  0.000  0.000  0.000  0.000  0.033
   36  0.032  0.000  0.000  0.000  0.000  0.000  0.000  0.000  0.000  0.033
tot    0.707  0.005  0.008  0.015  0.007  0.000  0.001  0.000  0.002  0.745
 
band     3 # energy  -14.57735814 # occ.  1.00000000
 
ion      s     py     pz     px    dxy    dyz    dz2    dxz  x2-y2    tot
    1  0.000  0.001  0.000  0.002  0.001  0.000  0.000  0.000  0.000  0.004
    2  0.010  0.000  0.000  0.000  0.000  0.000  0.000  0.000  0.000  0.010
    3  0.000  0.001  0.000  0.002  0.001  0.000  0.000  0.000  0.000  0.004
    4  0.000  0.001  0.000  0.002  0.001  0.000  0.000  0.000  0.000  0.004
    5  0.010  0.000  0.000  0.000  0.000  0.000  0.000  0.000  0.000  0.010
    6  0.010  0.000  0.000  0.000  0.000  0.000  0.000  0.000  0.000  0.010
    7  0.010  0.000  0.000  0.000  0.000  0.000  0.000  0.000  0.000  0.010
    8  0.010  0.000  0.000  0.000  0.000  0.000  0.000  0.000  0.000  0.010
    9  0.010  0.000  0.000  0.000  0.000  0.000  0.000  0.000  0.000  0.010
   10  0.000  0.001  0.000  0.002  0.001  0.000  0.000  0.000  0.000  0.004
   11  0.000  0.001  0.000  0.002  0.001  0.000  0.000  0.000  0.000  0.004
   12  0.000  0.001  0.000  0.002  0.001  0.000  0.000  0.000  0.000  0.004
   13  0.032  0.000  0.000  0.000  0.000  0.000  0.000  0.000  0.000  0.033
   14  0.032  0.000  0.000  0.000  0.000  0.000  0.000  0.000  0.000  0.033
   15  0.032  0.000  0.000  0.000  0.000  0.000  0.000  0.000  0.000  0.033
   16  0.021  0.000  0.000  0.000  0.000  0.000  0.000  0.000  0.000  0.022
   17  0.021  0.000  0.000  0.000  0.000  0.000  0.000  0.000  0.000  0.022
   18  0.032  0.000  0.000  0.000  0.000  0.000  0.000  0.000  0.000  0.033
   19  0.032  0.000  0.000  0.000  0.000  0.000  0.000  0.000  0.000  0.033
   20  0.032  0.000  0.000  0.000  0.000  0.000  0.000  0.000  0.000  0.033
   21  0.032  0.000  0.000  0.000  0.000  0.000  0.000  0.000  0.000  0.033
   22  0.032  0.000  0.000  0.000  0.000  0.000  0.000  0.000  0.000  0.033
   23  0.021  0.000  0.000  0.000  0.000  0.000  0.000  0.000  0.000  0.022
   24  0.021  0.000  0.000  0.000  0.000  0.000  0.000  0.000  0.000  0.022
   25  0.021  0.000  0.000  0.000  0.000  0.000  0.000  0.000  0.000  0.022
   26  0.021  0.000  0.000  0.000  0.000  0.000  0.000  0.000  0.000  0.022
   27  0.032  0.000  0.000  0.000  0.000  0.000  0.000  0.000  0.000  0.033
   28  0.032  0.000  0.000  0.000  0.000  0.000  0.000  0.000  0.000  0.033
   29  0.021  0.000  0.000  0.000  0.000  0.000  0.000  0.000  0.000  0.022
   30  0.032  0.000  0.000  0.000  0.000  0.000  0.000  0.000  0.000  0.033
   31  0.032  0.000  0.000  0.000  0.000  0.000  0.000  0.000  0.000  0.033
   32  0.021  0.000  0.000  0.000  0.000  0.000  0.000  0.000  0.000  0.022
   33  0.021  0.000  0.000  0.000  0.000  0.000  0.000  0.000  0.000  0.022
   34  0.021  0.000  0.000  0.000  0.000  0.000  0.000  0.000  0.000  0.022
   35  0.021  0.000  0.000  0.000  0.000  0.000  0.000  0.000  0.000  0.022
   36  0.021  0.000  0.000  0.000  0.000  0.000  0.000  0.000  0.000  0.022
tot    0.707  0.005  0.008  0.015  0.007  0.000  0.001  0.000  0.002  0.745
 
band     4 # energy  -14.36883318 # occ.  1.00000000
 
ion      s     py     pz     px    dxy    dyz    dz2    dxz  x2-y2    tot
    1  0.002  0.001  0.000  0.001  0.001  0.000  0.000  0.000  0.001  0.006
    2  0.002  0.002  0.000  0.000  0.000  0.000  0.000  0.000  0.001  0.006
    3  0.002  0.002  0.000  0.000  0.000  0.000  0.000  0.000  0.001  0.006
    4  0.009  0.000  0.000  0.000  0.000  0.000  0.000  0.000  0.000  0.010
    5  0.002  0.002  0.000  0.000  0.000  0.000  0.000  0.000  0.001  0.006
    6  0.002  0.001  0.000  0.001  0.001  0.000  0.000  0.000  0.001  0.006
    7  0.009  0.000  0.000  0.000  0.000  0.000  0.000  0.000  0.000  0.010
    8  0.002  0.001  0.000  0.001  0.001  0.000  0.000  0.000  0.001  0.006
    9  0.009  0.000  0.000  0.000  0.000  0.000  0.000  0.000  0.000  0.010
   10  0.002  0.002  0.000  0.000  0.000  0.000  0.000  0.000  0.001  0.006
   11  0.009  0.000  0.000  0.000  0.000  0.000  0.000  0.000  0.000  0.010
   12  0.002  0.001  0.000  0.001  0.001  0.000  0.000  0.000  0.001  0.006
   13  0.054  0.000  0.001  0.000  0.000  0.000  0.000  0.000  0.000  0.055
   14  0.014  0.000  0.000  0.000  0.000  0.000  0.000  0.000  0.000  0.014
   15  0.014  0.000  0.000  0.000  0.000  0.000  0.000  0.000  0.000  0.014
   16  0.014  0.000  0.000  0.000  0.000  0.000  0.000  0.000  0.000  0.014
   17  0.014  0.000  0.000  0.000  0.000  0.000  0.000  0.000  0.000  0.014
   18  0.014  0.000  0.000  0.000  0.000  0.000  0.000  0.000  0.000  0.014
   19  0.014  0.000  0.000  0.000  0.000  0.000  0.000  0.000  0.000  0.014
   20  0.054  0.000  0.001  0.000  0.000  0.000  0.000  0.000  0.000  0.055
   21  0.014  0.000  0.000  0.000  0.000  0.000  0.000  0.000  0.000  0.014
   22  0.014  0.000  0.000  0.000  0.000  0.000  0.000  0.000  0.000  0.014
   23  0.054  0.000  0.001  0.000  0.000  0.000  0.000  0.000  0.000  0.055
   24  0.054  0.000  0.001  0.000  0.000  0.000  0.000  0.000  0.000  0.055
   25  0.014  0.000  0.000  0.000  0.000  0.000  0.000  0.000  0.000  0.014
   26  0.014  0.000  0.000  0.000  0.000  0.000  0.000  0.000  0.000  0.014
   27  0.054  0.000  0.001  0.000  0.000  0.000  0.000  0.000  0.000  0.055
   28  0.054  0.000  0.001  0.000  0.000  0.000  0.000  0.000  0.000  0.055
   29  0.014  0.000  0.000  0.000  0.000  0.000  0.000  0.000  0.000  0.014
   30  0.014  0.000  0.000  0.000  0.000  0.000  0.000  0.000  0.000  0.014
   31  0.014  0.000  0.000  0.000  0.000  0.000  0.000  0.000  0.000  0.014
   32  0.014  0.000  0.000  0.000  0.000  0.000  0.000  0.000  0.000  0.014
   33  0.014  0.000  0.000  0.000  0.000  0.000  0.000  0.000  0.000  0.014
   34  0.014  0.000  0.000  0.000  0.000  0.000  0.000  0.000  0.000  0.014
   35  0.054  0.000  0.001  0.000  0.000  0.000  0.000  0.000  0.000  0.055
   36  0.054  0.000  0.001  0.000  0.000  0.000  0.000  0.000  0.000  0.055
tot    0.707  0.018  0.008  0.007  0.004  0.000  0.001  0.000  0.008  0.754
 
band     5 # energy  -14.36859213 # occ.  1.00000000
 
ion      s     py     pz     px    dxy    dyz    dz2    dxz  x2-y2    tot
    1  0.007  0.001  0.000  0.000  0.000  0.000  0.000  0.000  0.001  0.008
    2  0.007  0.000  0.000  0.001  0.001  0.000  0.000  0.000  0.000  0.008
    3  0.007  0.000  0.000  0.001  0.001  0.000  0.000  0.000  0.000  0.008
    4  0.000  0.002  0.000  0.001  0.000  0.000  0.000  0.000  0.001  0.005
    5  0.007  0.000  0.000  0.001  0.001  0.000  0.000  0.000  0.000  0.008
    6  0.007  0.001  0.000  0.000  0.000  0.000  0.000  0.000  0.001  0.008
    7  0.000  0.002  0.000  0.001  0.000  0.000  0.000  0.000  0.001  0.005
    8  0.007  0.001  0.000  0.000  0.000  0.000  0.000  0.000  0.001  0.008
    9  0.000  0.002  0.000  0.001  0.000  0.000  0.000  0.000  0.001  0.005
   10  0.007  0.000  0.000  0.001  0.001  0.000  0.000  0.000  0.000  0.008
   11  0.000  0.002  0.000  0.001  0.000  0.000  0.000  0.000  0.001  0.005
   12  0.007  0.001  0.000  0.000  0.000  0.000  0.000  0.000  0.001  0.008
   13  0.000  0.000  0.000  0.000  0.000  0.000  0.000  0.000  0.000  0.000
   14  0.041  0.000  0.000  0.000  0.000  0.000  0.000  0.000  0.000  0.041
   15  0.041  0.000  0.000  0.000  0.000  0.000  0.000  0.000  0.000  0.041
   16  0.041  0.000  0.000  0.000  0.000  0.000  0.000  0.000  0.000  0.041
   17  0.041  0.000  0.000  0.000  0.000  0.000  0.000  0.000  0.000  0.041
   18  0.041  0.000  0.000  0.000  0.000  0.000  0.000  0.000  0.000  0.041
   19  0.041  0.000  0.000  0.000  0.000  0.000  0.000  0.000  0.000  0.041
   20  0.000  0.000  0.000  0.000  0.000  0.000  0.000  0.000  0.000  0.000
   21  0.041  0.000  0.000  0.000  0.000  0.000  0.000  0.000  0.000  0.041
   22  0.041  0.000  0.000  0.000  0.000  0.000  0.000  0.000  0.000  0.041
   23  0.000  0.000  0.000  0.000  0.000  0.000  0.000  0.000  0.000  0.000
   24  0.000  0.000  0.000  0.000  0.000  0.000  0.000  0.000  0.000  0.000
   25  0.041  0.000  0.000  0.000  0.000  0.000  0.000  0.000  0.000  0.041
   26  0.041  0.000  0.000  0.000  0.000  0.000  0.000  0.000  0.000  0.041
   27  0.000  0.000  0.000  0.000  0.000  0.000  0.000  0.000  0.000  0.000
   28  0.000  0.000  0.000  0.000  0.000  0.000  0.000  0.000  0.000  0.000
   29  0.041  0.000  0.000  0.000  0.000  0.000  0.000  0.000  0.000  0.041
   30  0.041  0.000  0.000  0.000  0.000  0.000  0.000  0.000  0.000  0.041
   31  0.041  0.000  0.000  0.000  0.000  0.000  0.000  0.000  0.000  0.041
   32  0.041  0.000  0.000  0.000  0.000  0.000  0.000  0.000  0.000  0.041
   33  0.041  0.000  0.000  0.000  0.000  0.000  0.000  0.000  0.000  0.041
   34  0.041  0.000  0.000  0.000  0.000  0.000  0.000  0.000  0.000  0.041
   35  0.000  0.000  0.000  0.000  0.000  0.000  0.000  0.000  0.000  0.000
   36  0.000  0.000  0.000  0.000  0.000  0.000  0.000  0.000  0.000  0.000
tot    0.707  0.018  0.008  0.007  0.004  0.000  0.001  0.000  0.008  0.754
 
band     6 # energy  -14.36640272 # occ.  1.00000000
 
ion      s     py     pz     px    dxy    dyz    dz2    dxz  x2-y2    tot
    1  0.000  0.000  0.004  0.000  0.000  0.000  0.000  0.000  0.000  0.004
    2  0.000  0.000  0.004  0.000  0.000  0.000  0.000  0.000  0.000  0.004
    3  0.000  0.000  0.004  0.000  0.000  0.000  0.000  0.000  0.000  0.004
    4  0.000  0.000  0.004  0.000  0.000  0.000  0.000  0.000  0.000  0.004
    5  0.000  0.000  0.004  0.000  0.000  0.000  0.000  0.000  0.000  0.004
    6  0.000  0.000  0.004  0.000  0.000  0.000  0.000  0.000  0.000  0.004
    7  0.000  0.000  0.004  0.000  0.000  0.000  0.000  0.000  0.000  0.004
    8  0.000  0.000  0.004  0.000  0.000  0.000  0.000  0.000  0.000  0.004
    9  0.000  0.000  0.004  0.000  0.000  0.000  0.000  0.000  0.000  0.004
   10  0.000  0.000  0.004  0.000  0.000  0.000  0.000  0.000  0.000  0.004
   11  0.000  0.000  0.004  0.000  0.000  0.000  0.000  0.000  0.000  0.004
   12  0.000  0.000  0.004  0.000  0.000  0.000  0.000  0.000  0.000  0.004
   13  0.028  0.000  0.000  0.000  0.000  0.000  0.000  0.000  0.000  0.028
   14  0.028  0.000  0.000  0.000  0.000  0.000  0.000  0.000  0.000  0.028
   15  0.028  0.000  0.000  0.000  0.000  0.000  0.000  0.000  0.000  0.028
   16  0.028  0.000  0.000  0.000  0.000  0.000  0.000  0.000  0.000  0.028
   17  0.028  0.000  0.000  0.000  0.000  0.000  0.000  0.000  0.000  0.028
   18  0.028  0.000  0.000  0.000  0.000  0.000  0.000  0.000  0.000  0.028
   19  0.028  0.000  0.000  0.000  0.000  0.000  0.000  0.000  0.000  0.028
   20  0.028  0.000  0.000  0.000  0.000  0.000  0.000  0.000  0.000  0.028
   21  0.028  0.000  0.000  0.000  0.000  0.000  0.000  0.000  0.000  0.028
   22  0.028  0.000  0.000  0.000  0.000  0.000  0.000  0.000  0.000  0.028
   23  0.028  0.000  0.000  0.000  0.000  0.000  0.000  0.000  0.000  0.028
   24  0.028  0.000  0.000  0.000  0.000  0.000  0.000  0.000  0.000  0.028
   25  0.028  0.000  0.000  0.000  0.000  0.000  0.000  0.000  0.000  0.028
   26  0.028  0.000  0.000  0.000  0.000  0.000  0.000  0.000  0.000  0.028
   27  0.028  0.000  0.000  0.000  0.000  0.000  0.000  0.000  0.000  0.028
   28  0.028  0.000  0.000  0.000  0.000  0.000  0.000  0.000  0.000  0.028
   29  0.028  0.000  0.000  0.000  0.000  0.000  0.000  0.000  0.000  0.028
   30  0.028  0.000  0.000  0.000  0.000  0.000  0.000  0.000  0.000  0.028
   31  0.028  0.000  0.000  0.000  0.000  0.000  0.000  0.000  0.000  0.028
   32  0.028  0.000  0.000  0.000  0.000  0.000  0.000  0.000  0.000  0.028
   33  0.028  0.000  0.000  0.000  0.000  0.000  0.000  0.000  0.000  0.028
   34  0.028  0.000  0.000  0.000  0.000  0.000  0.000  0.000  0.000  0.028
   35  0.028  0.000  0.000  0.000  0.000  0.000  0.000  0.000  0.000  0.028
   36  0.028  0.000  0.000  0.000  0.000  0.000  0.000  0.000  0.000  0.028
tot    0.682  0.000  0.044  0.000  0.000  0.000  0.000  0.000  0.000  0.727
 
band     7 # energy  -13.93059507 # occ.  1.00000000
 
ion      s     py     pz     px    dxy    dyz    dz2    dxz  x2-y2    tot
    1  0.000  0.000  0.004  0.000  0.000  0.000  0.000  0.000  0.000  0.004
    2  0.000  0.000  0.000  0.000  0.000  0.001  0.000  0.004  0.000  0.006
    3  0.000  0.000  0.004  0.000  0.000  0.000  0.000  0.000  0.000  0.004
    4  0.000  0.000  0.004  0.000  0.000  0.000  0.000  0.000  0.000  0.004
    5  0.000  0.000  0.000  0.000  0.000  0.001  0.000  0.004  0.000  0.006
    6  0.000  0.000  0.000  0.000  0.000  0.001  0.000  0.004  0.000  0.006
    7  0.000  0.000  0.000  0.000  0.000  0.001  0.000  0.004  0.000  0.006
    8  0.000  0.000  0.000  0.000  0.000  0.001  0.000  0.004  0.000  0.006
    9  0.000  0.000  0.000  0.000  0.000  0.001  0.000  0.004  0.000  0.006
   10  0.000  0.000  0.004  0.000  0.000  0.000  0.000  0.000  0.000  0.004
   11  0.000  0.000  0.004  0.000  0.000  0.000  0.000  0.000  0.000  0.004
   12  0.000  0.000  0.004  0.000  0.000  0.000  0.000  0.000  0.000  0.004
   13  0.027  0.000  0.000  0.000  0.000  0.000  0.000  0.000  0.000  0.027
   14  0.027  0.000  0.000  0.000  0.000  0.000  0.000  0.000  0.000  0.027
   15  0.027  0.000  0.000  0.000  0.000  0.000  0.000  0.000  0.000  0.027
   16  0.031  0.000  0.000  0.000  0.000  0.000  0.000  0.000  0.000  0.031
   17  0.031  0.000  0.000  0.000  0.000  0.000  0.000  0.000  0.000  0.031
   18  0.027  0.000  0.000  0.000  0.000  0.000  0.000  0.000  0.000  0.027
   19  0.027  0.000  0.000  0.000  0.000  0.000  0.000  0.000  0.000  0.027
   20  0.027  0.000  0.000  0.000  0.000  0.000  0.000  0.000  0.000  0.027
   21  0.027  0.000  0.000  0.000  0.000  0.000  0.000  0.000  0.000  0.027
   22  0.027  0.000  0.000  0.000  0.000  0.000  0.000  0.000  0.000  0.027
   23  0.031  0.000  0.000  0.000  0.000  0.000  0.000  0.000  0.000  0.031
   24  0.031  0.000  0.000  0.000  0.000  0.000  0.000  0.000  0.000  0.031
   25  0.031  0.000  0.000  0.000  0.000  0.000  0.000  0.000  0.000  0.031
   26  0.031  0.000  0.000  0.000  0.000  0.000  0.000  0.000  0.000  0.031
   27  0.027  0.000  0.000  0.000  0.000  0.000  0.000  0.000  0.000  0.027
   28  0.027  0.000  0.000  0.000  0.000  0.000  0.000  0.000  0.000  0.027
   29  0.031  0.000  0.000  0.000  0.000  0.000  0.000  0.000  0.000  0.031
   30  0.027  0.000  0.000  0.000  0.000  0.000  0.000  0.000  0.000  0.027
   31  0.027  0.000  0.000  0.000  0.000  0.000  0.000  0.000  0.000  0.027
   32  0.031  0.000  0.000  0.000  0.000  0.000  0.000  0.000  0.000  0.031
   33  0.031  0.000  0.000  0.000  0.000  0.000  0.000  0.000  0.000  0.031
   34  0.031  0.000  0.000  0.000  0.000  0.000  0.000  0.000  0.000  0.031
   35  0.031  0.000  0.000  0.000  0.000  0.000  0.000  0.000  0.000  0.031
   36  0.031  0.000  0.000  0.000  0.000  0.000  0.000  0.000  0.000  0.031
tot    0.697  0.001  0.030  0.002  0.000  0.008  0.000  0.025  0.000  0.762
 
band     8 # energy  -13.92993660 # occ.  1.00000000
 
ion      s     py     pz     px    dxy    dyz    dz2    dxz  x2-y2    tot
    1  0.000  0.000  0.000  0.000  0.000  0.001  0.000  0.004  0.000  0.006
    2  0.000  0.000  0.004  0.000  0.000  0.000  0.000  0.000  0.000  0.004
    3  0.000  0.000  0.000  0.000  0.000  0.001  0.000  0.004  0.000  0.006
    4  0.000  0.000  0.000  0.000  0.000  0.001  0.000  0.004  0.000  0.006
    5  0.000  0.000  0.004  0.000  0.000  0.000  0.000  0.000  0.000  0.004
    6  0.000  0.000  0.004  0.000  0.000  0.000  0.000  0.000  0.000  0.004
    7  0.000  0.000  0.004  0.000  0.000  0.000  0.000  0.000  0.000  0.004
    8  0.000  0.000  0.004  0.000  0.000  0.000  0.000  0.000  0.000  0.004
    9  0.000  0.000  0.004  0.000  0.000  0.000  0.000  0.000  0.000  0.004
   10  0.000  0.000  0.000  0.000  0.000  0.001  0.000  0.004  0.000  0.006
   11  0.000  0.000  0.000  0.000  0.000  0.001  0.000  0.004  0.000  0.006
   12  0.000  0.000  0.000  0.000  0.000  0.001  0.000  0.004  0.000  0.006
   13  0.031  0.000  0.000  0.000  0.000  0.000  0.000  0.000  0.000  0.031
   14  0.031  0.000  0.000  0.000  0.000  0.000  0.000  0.000  0.000  0.031
   15  0.031  0.000  0.000  0.000  0.000  0.000  0.000  0.000  0.000  0.031
   16  0.027  0.000  0.000  0.000  0.000  0.000  0.000  0.000  0.000  0.027
   17  0.027  0.000  0.000  0.000  0.000  0.000  0.000  0.000  0.000  0.027
   18  0.031  0.000  0.000  0.000  0.000  0.000  0.000  0.000  0.000  0.031
   19  0.031  0.000  0.000  0.000  0.000  0.000  0.000  0.000  0.000  0.031
   20  0.031  0.000  0.000  0.000  0.000  0.000  0.000  0.000  0.000  0.031
   21  0.031  0.000  0.000  0.000  0.000  0.000  0.000  0.000  0.000  0.031
   22  0.031  0.000  0.000  0.000  0.000  0.000  0.000  0.000  0.000  0.031
   23  0.027  0.000  0.000  0.000  0.000  0.000  0.000  0.000  0.000  0.027
   24  0.027  0.000  0.000  0.000  0.000  0.000  0.000  0.000  0.000  0.027
   25  0.027  0.000  0.000  0.000  0.000  0.000  0.000  0.000  0.000  0.027
   26  0.027  0.000  0.000  0.000  0.000  0.000  0.000  0.000  0.000  0.027
   27  0.031  0.000  0.000  0.000  0.000  0.000  0.000  0.000  0.000  0.031
   28  0.031  0.000  0.000  0.000  0.000  0.000  0.000  0.000  0.000  0.031
   29  0.027  0.000  0.000  0.000  0.000  0.000  0.000  0.000  0.000  0.027
   30  0.031  0.000  0.000  0.000  0.000  0.000  0.000  0.000  0.000  0.031
   31  0.031  0.000  0.000  0.000  0.000  0.000  0.000  0.000  0.000  0.031
   32  0.027  0.000  0.000  0.000  0.000  0.000  0.000  0.000  0.000  0.027
   33  0.027  0.000  0.000  0.000  0.000  0.000  0.000  0.000  0.000  0.027
   34  0.027  0.000  0.000  0.000  0.000  0.000  0.000  0.000  0.000  0.027
   35  0.027  0.000  0.000  0.000  0.000  0.000  0.000  0.000  0.000  0.027
   36  0.027  0.000  0.000  0.000  0.000  0.000  0.000  0.000  0.000  0.027
tot    0.697  0.001  0.030  0.002  0.000  0.008  0.000  0.025  0.000  0.763
 
band     9 # energy  -13.89789757 # occ.  1.00000000
 
ion      s     py     pz     px    dxy    dyz    dz2    dxz  x2-y2    tot
    1  0.002  0.002  0.000  0.001  0.001  0.000  0.000  0.000  0.001  0.007
    2  0.000  0.000  0.000  0.002  0.002  0.000  0.000  0.000  0.001  0.005
    3  0.002  0.002  0.000  0.000  0.000  0.000  0.000  0.000  0.002  0.007
    4  0.010  0.000  0.000  0.000  0.000  0.000  0.000  0.000  0.000  0.011
    5  0.000  0.000  0.000  0.002  0.002  0.000  0.000  0.000  0.001  0.005
    6  0.000  0.003  0.000  0.000  0.000  0.000  0.000  0.000  0.003  0.005
    7  0.000  0.001  0.000  0.003  0.002  0.000  0.000  0.000  0.001  0.006
    8  0.000  0.003  0.000  0.000  0.000  0.000  0.000  0.000  0.003  0.005
    9  0.000  0.001  0.000  0.003  0.002  0.000  0.000  0.000  0.001  0.006
   10  0.002  0.002  0.000  0.000  0.000  0.000  0.000  0.000  0.002  0.007
   11  0.010  0.000  0.000  0.000  0.000  0.000  0.000  0.000  0.000  0.011
   12  0.002  0.002  0.000  0.001  0.001  0.000  0.000  0.000  0.001  0.007
   13  0.052  0.000  0.001  0.000  0.000  0.000  0.000  0.000  0.000  0.053
   14  0.013  0.000  0.000  0.000  0.000  0.000  0.000  0.000  0.000  0.013
   15  0.013  0.000  0.000  0.000  0.000  0.000  0.000  0.000  0.000  0.013
   16  0.015  0.000  0.000  0.000  0.000  0.000  0.000  0.000  0.000  0.016
   17  0.015  0.000  0.000  0.000  0.000  0.000  0.000  0.000  0.000  0.016
   18  0.013  0.000  0.000  0.000  0.000  0.000  0.000  0.000  0.000  0.013
   19  0.013  0.000  0.000  0.000  0.000  0.000  0.000  0.000  0.000  0.013
   20  0.052  0.000  0.001  0.000  0.000  0.000  0.000  0.000  0.000  0.053
   21  0.013  0.000  0.000  0.000  0.000  0.000  0.000  0.000  0.000  0.013
   22  0.013  0.000  0.000  0.000  0.000  0.000  0.000  0.000  0.000  0.013
   23  0.062  0.000  0.001  0.000  0.000  0.000  0.000  0.000  0.000  0.063
   24  0.062  0.000  0.001  0.000  0.000  0.000  0.000  0.000  0.000  0.063
   25  0.016  0.000  0.000  0.000  0.000  0.000  0.000  0.000  0.000  0.016
   26  0.016  0.000  0.000  0.000  0.000  0.000  0.000  0.000  0.000  0.016
   27  0.052  0.000  0.001  0.000  0.000  0.000  0.000  0.000  0.000  0.053
   28  0.052  0.000  0.001  0.000  0.000  0.000  0.000  0.000  0.000  0.053
   29  0.015  0.000  0.000  0.000  0.000  0.000  0.000  0.000  0.000  0.016
   30  0.013  0.000  0.000  0.000  0.000  0.000  0.000  0.000  0.000  0.013
   31  0.013  0.000  0.000  0.000  0.000  0.000  0.000  0.000  0.000  0.013
   32  0.015  0.000  0.000  0.000  0.000  0.000  0.000  0.000  0.000  0.016
   33  0.016  0.000  0.000  0.000  0.000  0.000  0.000  0.000  0.000  0.016
   34  0.016  0.000  0.000  0.000  0.000  0.000  0.000  0.000  0.000  0.016
   35  0.062  0.000  0.001  0.000  0.000  0.000  0.000  0.000  0.000  0.063
   36  0.062  0.000  0.001  0.000  0.000  0.000  0.000  0.000  0.000  0.063
tot    0.714  0.018  0.008  0.014  0.009  0.000  0.001  0.000  0.014  0.779
 
band    10 # energy  -13.89774295 # occ.  1.00000000
 
ion      s     py     pz     px    dxy    dyz    dz2    dxz  x2-y2    tot
    1  0.007  0.001  0.000  0.000  0.000  0.000  0.000  0.000  0.001  0.010
    2  0.000  0.002  0.000  0.001  0.000  0.000  0.000  0.000  0.002  0.006
    3  0.007  0.000  0.000  0.001  0.001  0.000  0.000  0.000  0.000  0.010
    4  0.000  0.003  0.000  0.001  0.001  0.000  0.000  0.000  0.002  0.006
    5  0.000  0.002  0.000  0.001  0.000  0.000  0.000  0.000  0.002  0.006
    6  0.000  0.000  0.000  0.003  0.002  0.000  0.000  0.000  0.000  0.006
    7  0.000  0.002  0.000  0.001  0.001  0.000  0.000  0.000  0.002  0.005
    8  0.000  0.000  0.000  0.003  0.002  0.000  0.000  0.000  0.000  0.006
    9  0.000  0.002  0.000  0.001  0.001  0.000  0.000  0.000  0.002  0.005
   10  0.007  0.000  0.000  0.001  0.001  0.000  0.000  0.000  0.000  0.010
   11  0.000  0.003  0.000  0.001  0.001  0.000  0.000  0.000  0.002  0.006
   12  0.007  0.001  0.000  0.000  0.000  0.000  0.000  0.000  0.001  0.010
   13  0.000  0.000  0.000  0.000  0.000  0.000  0.000  0.000  0.000  0.000
   14  0.039  0.000  0.000  0.000  0.000  0.000  0.000  0.000  0.000  0.039
   15  0.039  0.000  0.000  0.000  0.000  0.000  0.000  0.000  0.000  0.039
   16  0.047  0.000  0.001  0.000  0.000  0.000  0.000  0.000  0.000  0.047
   17  0.047  0.000  0.001  0.000  0.000  0.000  0.000  0.000  0.000  0.047
   18  0.039  0.000  0.000  0.000  0.000  0.000  0.000  0.000  0.000  0.040
   19  0.039  0.000  0.000  0.000  0.000  0.000  0.000  0.000  0.000  0.040
   20  0.000  0.000  0.000  0.000  0.000  0.000  0.000  0.000  0.000  0.000
   21  0.039  0.000  0.000  0.000  0.000  0.000  0.000  0.000  0.000  0.039
   22  0.039  0.000  0.000  0.000  0.000  0.000  0.000  0.000  0.000  0.039
   23  0.000  0.000  0.000  0.000  0.000  0.000  0.000  0.000  0.000  0.000
   24  0.000  0.000  0.000  0.000  0.000  0.000  0.000  0.000  0.000  0.000
   25  0.047  0.000  0.001  0.000  0.000  0.000  0.000  0.000  0.000  0.047
   26  0.047  0.000  0.001  0.000  0.000  0.000  0.000  0.000  0.000  0.047
   27  0.000  0.000  0.000  0.000  0.000  0.000  0.000  0.000  0.000  0.000
   28  0.000  0.000  0.000  0.000  0.000  0.000  0.000  0.000  0.000  0.000
   29  0.047  0.000  0.001  0.000  0.000  0.000  0.000  0.000  0.000  0.047
   30  0.039  0.000  0.000  0.000  0.000  0.000  0.000  0.000  0.000  0.040
   31  0.039  0.000  0.000  0.000  0.000  0.000  0.000  0.000  0.000  0.040
   32  0.047  0.000  0.001  0.000  0.000  0.000  0.000  0.000  0.000  0.047
   33  0.047  0.000  0.001  0.000  0.000  0.000  0.000  0.000  0.000  0.047
   34  0.047  0.000  0.001  0.000  0.000  0.000  0.000  0.000  0.000  0.047
   35  0.000  0.000  0.000  0.000  0.000  0.000  0.000  0.000  0.000  0.000
   36  0.000  0.000  0.000  0.000  0.000  0.000  0.000  0.000  0.000  0.000
tot    0.714  0.018  0.008  0.015  0.009  0.000  0.001  0.000  0.014  0.779
 
band    11 # energy  -13.89742949 # occ.  1.00000000
 
ion      s     py     pz     px    dxy    dyz    dz2    dxz  x2-y2    tot
    1  0.000  0.003  0.000  0.000  0.000  0.000  0.000  0.000  0.003  0.005
    2  0.002  0.002  0.000  0.000  0.000  0.000  0.000  0.000  0.002  0.007
    3  0.000  0.000  0.000  0.002  0.002  0.000  0.000  0.000  0.001  0.005
    4  0.000  0.001  0.000  0.003  0.002  0.000  0.000  0.000  0.001  0.006
    5  0.002  0.002  0.000  0.000  0.000  0.000  0.000  0.000  0.002  0.007
    6  0.002  0.002  0.000  0.001  0.001  0.000  0.000  0.000  0.001  0.007
    7  0.010  0.000  0.000  0.000  0.000  0.000  0.000  0.000  0.000  0.011
    8  0.002  0.002  0.000  0.001  0.001  0.000  0.000  0.000  0.001  0.007
    9  0.010  0.000  0.000  0.000  0.000  0.000  0.000  0.000  0.000  0.011
   10  0.000  0.000  0.000  0.002  0.002  0.000  0.000  0.000  0.001  0.005
   11  0.000  0.001  0.000  0.003  0.002  0.000  0.000  0.000  0.001  0.006
   12  0.000  0.003  0.000  0.000  0.000  0.000  0.000  0.000  0.003  0.005
   13  0.062  0.000  0.001  0.000  0.000  0.000  0.000  0.000  0.000  0.063
   14  0.016  0.000  0.000  0.000  0.000  0.000  0.000  0.000  0.000  0.016
   15  0.015  0.000  0.000  0.000  0.000  0.000  0.000  0.000  0.000  0.016
   16  0.013  0.000  0.000  0.000  0.000  0.000  0.000  0.000  0.000  0.013
   17  0.013  0.000  0.000  0.000  0.000  0.000  0.000  0.000  0.000  0.013
   18  0.015  0.000  0.000  0.000  0.000  0.000  0.000  0.000  0.000  0.016
   19  0.016  0.000  0.000  0.000  0.000  0.000  0.000  0.000  0.000  0.016
   20  0.062  0.000  0.001  0.000  0.000  0.000  0.000  0.000  0.000  0.063
   21  0.016  0.000  0.000  0.000  0.000  0.000  0.000  0.000  0.000  0.016
   22  0.015  0.000  0.000  0.000  0.000  0.000  0.000  0.000  0.000  0.016
   23  0.052  0.000  0.001  0.000  0.000  0.000  0.000  0.000  0.000  0.053
   24  0.052  0.000  0.001  0.000  0.000  0.000  0.000  0.000  0.000  0.053
   25  0.013  0.000  0.000  0.000  0.000  0.000  0.000  0.000  0.000  0.013
   26  0.013  0.000  0.000  0.000  0.000  0.000  0.000  0.000  0.000  0.013
   27  0.062  0.000  0.001  0.000  0.000  0.000  0.000  0.000  0.000  0.063
   28  0.062  0.000  0.001  0.000  0.000  0.000  0.000  0.000  0.000  0.063
   29  0.013  0.000  0.000  0.000  0.000  0.000  0.000  0.000  0.000  0.013
   30  0.016  0.000  0.000  0.000  0.000  0.000  0.000  0.000  0.000  0.016
   31  0.015  0.000  0.000  0.000  0.000  0.000  0.000  0.000  0.000  0.016
   32  0.013  0.000  0.000  0.000  0.000  0.000  0.000  0.000  0.000  0.013
   33  0.013  0.000  0.000  0.000  0.000  0.000  0.000  0.000  0.000  0.013
   34  0.013  0.000  0.000  0.000  0.000  0.000  0.000  0.000  0.000  0.013
   35  0.052  0.000  0.001  0.000  0.000  0.000  0.000  0.000  0.000  0.053
   36  0.052  0.000  0.001  0.000  0.000  0.000  0.000  0.000  0.000  0.053
tot    0.714  0.018  0.008  0.014  0.009  0.000  0.001  0.000  0.014  0.779
 
band    12 # energy  -13.89727321 # occ.  1.00000000
 
ion      s     py     pz     px    dxy    dyz    dz2    dxz  x2-y2    tot
    1  0.000  0.000  0.000  0.003  0.002  0.000  0.000  0.000  0.000  0.006
    2  0.007  0.000  0.000  0.001  0.001  0.000  0.000  0.000  0.000  0.010
    3  0.000  0.002  0.000  0.001  0.000  0.000  0.000  0.000  0.002  0.006
    4  0.000  0.002  0.000  0.001  0.001  0.000  0.000  0.000  0.002  0.005
    5  0.007  0.000  0.000  0.001  0.001  0.000  0.000  0.000  0.000  0.010
    6  0.007  0.001  0.000  0.000  0.000  0.000  0.000  0.000  0.001  0.010
    7  0.000  0.003  0.000  0.001  0.001  0.000  0.000  0.000  0.002  0.006
    8  0.007  0.001  0.000  0.000  0.000  0.000  0.000  0.000  0.001  0.010
    9  0.000  0.003  0.000  0.001  0.001  0.000  0.000  0.000  0.002  0.006
   10  0.000  0.002  0.000  0.001  0.000  0.000  0.000  0.000  0.002  0.006
   11  0.000  0.002  0.000  0.001  0.001  0.000  0.000  0.000  0.002  0.005
   12  0.000  0.000  0.000  0.003  0.002  0.000  0.000  0.000  0.000  0.006
   13  0.000  0.000  0.000  0.000  0.000  0.000  0.000  0.000  0.000  0.000
   14  0.047  0.000  0.001  0.000  0.000  0.000  0.000  0.000  0.000  0.047
   15  0.047  0.000  0.001  0.000  0.000  0.000  0.000  0.000  0.000  0.047
   16  0.039  0.000  0.000  0.000  0.000  0.000  0.000  0.000  0.000  0.040
   17  0.039  0.000  0.000  0.000  0.000  0.000  0.000  0.000  0.000  0.040
   18  0.047  0.000  0.001  0.000  0.000  0.000  0.000  0.000  0.000  0.047
   19  0.047  0.000  0.001  0.000  0.000  0.000  0.000  0.000  0.000  0.047
   20  0.000  0.000  0.000  0.000  0.000  0.000  0.000  0.000  0.000  0.000
   21  0.047  0.000  0.001  0.000  0.000  0.000  0.000  0.000  0.000  0.047
   22  0.047  0.000  0.001  0.000  0.000  0.000  0.000  0.000  0.000  0.047
   23  0.000  0.000  0.000  0.000  0.000  0.000  0.000  0.000  0.000  0.000
   24  0.000  0.000  0.000  0.000  0.000  0.000  0.000  0.000  0.000  0.000
   25  0.039  0.000  0.000  0.000  0.000  0.000  0.000  0.000  0.000  0.040
   26  0.039  0.000  0.000  0.000  0.000  0.000  0.000  0.000  0.000  0.040
   27  0.000  0.000  0.000  0.000  0.000  0.000  0.000  0.000  0.000  0.000
   28  0.000  0.000  0.000  0.000  0.000  0.000  0.000  0.000  0.000  0.000
   29  0.039  0.000  0.000  0.000  0.000  0.000  0.000  0.000  0.000  0.040
   30  0.047  0.000  0.001  0.000  0.000  0.000  0.000  0.000  0.000  0.047
   31  0.047  0.000  0.001  0.000  0.000  0.000  0.000  0.000  0.000  0.047
   32  0.039  0.000  0.000  0.000  0.000  0.000  0.000  0.000  0.000  0.040
   33  0.039  0.000  0.000  0.000  0.000  0.000  0.000  0.000  0.000  0.040
   34  0.039  0.000  0.000  0.000  0.000  0.000  0.000  0.000  0.000  0.040
   35  0.000  0.000  0.000  0.000  0.000  0.000  0.000  0.000  0.000  0.000
   36  0.000  0.000  0.000  0.000  0.000  0.000  0.000  0.000  0.000  0.000
tot    0.714  0.018  0.008  0.015  0.009  0.000  0.001  0.000  0.014  0.779
 
band    13 # energy  -13.80857430 # occ.  1.00000000
 
ion      s     py     pz     px    dxy    dyz    dz2    dxz  x2-y2    tot
    1  0.000  0.000  0.001  0.000  0.000  0.003  0.000  0.002  0.000  0.006
    2  0.000  0.000  0.001  0.000  0.000  0.004  0.000  0.001  0.000  0.006
    3  0.000  0.000  0.001  0.000  0.000  0.004  0.000  0.001  0.000  0.006
    4  0.000  0.000  0.004  0.000  0.000  0.000  0.000  0.000  0.000  0.004
    5  0.000  0.000  0.001  0.000  0.000  0.004  0.000  0.001  0.000  0.006
    6  0.000  0.000  0.001  0.000  0.000  0.003  0.000  0.002  0.000  0.006
    7  0.000  0.000  0.004  0.000  0.000  0.000  0.000  0.000  0.000  0.004
    8  0.000  0.000  0.001  0.000  0.000  0.003  0.000  0.002  0.000  0.006
    9  0.000  0.000  0.004  0.000  0.000  0.000  0.000  0.000  0.000  0.004
   10  0.000  0.000  0.001  0.000  0.000  0.004  0.000  0.001  0.000  0.006
   11  0.000  0.000  0.004  0.000  0.000  0.000  0.000  0.000  0.000  0.004
   12  0.000  0.000  0.001  0.000  0.000  0.003  0.000  0.002  0.000  0.006
   13  0.058  0.000  0.000  0.000  0.000  0.000  0.000  0.000  0.000  0.059
   14  0.015  0.000  0.000  0.000  0.000  0.000  0.000  0.000  0.000  0.015
   15  0.015  0.000  0.000  0.000  0.000  0.000  0.000  0.000  0.000  0.015
   16  0.015  0.000  0.000  0.000  0.000  0.000  0.000  0.000  0.000  0.015
   17  0.015  0.000  0.000  0.000  0.000  0.000  0.000  0.000  0.000  0.015
   18  0.015  0.000  0.000  0.000  0.000  0.000  0.000  0.000  0.000  0.015
   19  0.015  0.000  0.000  0.000  0.000  0.000  0.000  0.000  0.000  0.015
   20  0.058  0.000  0.000  0.000  0.000  0.000  0.000  0.000  0.000  0.059
   21  0.015  0.000  0.000  0.000  0.000  0.000  0.000  0.000  0.000  0.015
   22  0.015  0.000  0.000  0.000  0.000  0.000  0.000  0.000  0.000  0.015
   23  0.058  0.000  0.000  0.000  0.000  0.000  0.000  0.000  0.000  0.059
   24  0.059  0.000  0.000  0.000  0.000  0.000  0.000  0.000  0.000  0.059
   25  0.015  0.000  0.000  0.000  0.000  0.000  0.000  0.000  0.000  0.015
   26  0.015  0.000  0.000  0.000  0.000  0.000  0.000  0.000  0.000  0.015
   27  0.058  0.000  0.000  0.000  0.000  0.000  0.000  0.000  0.000  0.059
   28  0.058  0.000  0.000  0.000  0.000  0.000  0.000  0.000  0.000  0.059
   29  0.015  0.000  0.000  0.000  0.000  0.000  0.000  0.000  0.000  0.015
   30  0.015  0.000  0.000  0.000  0.000  0.000  0.000  0.000  0.000  0.015
   31  0.015  0.000  0.000  0.000  0.000  0.000  0.000  0.000  0.000  0.015
   32  0.015  0.000  0.000  0.000  0.000  0.000  0.000  0.000  0.000  0.015
   33  0.015  0.000  0.000  0.000  0.000  0.000  0.000  0.000  0.000  0.015
   34  0.015  0.000  0.000  0.000  0.000  0.000  0.000  0.000  0.000  0.015
   35  0.059  0.000  0.000  0.000  0.000  0.000  0.000  0.000  0.000  0.059
   36  0.058  0.000  0.000  0.000  0.000  0.000  0.000  0.000  0.000  0.059
tot    0.702  0.002  0.026  0.001  0.000  0.031  0.000  0.012  0.000  0.774
 
band    14 # energy  -13.80845893 # occ.  1.00000000
 
ion      s     py     pz     px    dxy    dyz    dz2    dxz  x2-y2    tot
    1  0.000  0.000  0.003  0.000  0.000  0.002  0.000  0.000  0.000  0.005
    2  0.000  0.000  0.003  0.000  0.000  0.001  0.000  0.001  0.000  0.005
    3  0.000  0.000  0.003  0.000  0.000  0.001  0.000  0.001  0.000  0.005
    4  0.000  0.000  0.000  0.000  0.000  0.005  0.000  0.002  0.000  0.007
    5  0.000  0.000  0.003  0.000  0.000  0.001  0.000  0.001  0.000  0.005
    6  0.000  0.000  0.003  0.000  0.000  0.002  0.000  0.000  0.000  0.005
    7  0.000  0.000  0.000  0.000  0.000  0.005  0.000  0.002  0.000  0.007
    8  0.000  0.000  0.003  0.000  0.000  0.002  0.000  0.000  0.000  0.005
    9  0.000  0.000  0.000  0.000  0.000  0.005  0.000  0.002  0.000  0.007
   10  0.000  0.000  0.003  0.000  0.000  0.001  0.000  0.001  0.000  0.005
   11  0.000  0.000  0.000  0.000  0.000  0.005  0.000  0.002  0.000  0.007
   12  0.000  0.000  0.003  0.000  0.000  0.002  0.000  0.000  0.000  0.005
   13  0.000  0.000  0.000  0.000  0.000  0.000  0.000  0.000  0.000  0.000
   14  0.044  0.000  0.000  0.000  0.000  0.000  0.000  0.000  0.000  0.044
   15  0.044  0.000  0.000  0.000  0.000  0.000  0.000  0.000  0.000  0.044
   16  0.044  0.000  0.000  0.000  0.000  0.000  0.000  0.000  0.000  0.044
   17  0.044  0.000  0.000  0.000  0.000  0.000  0.000  0.000  0.000  0.044
   18  0.044  0.000  0.000  0.000  0.000  0.000  0.000  0.000  0.000  0.044
   19  0.044  0.000  0.000  0.000  0.000  0.000  0.000  0.000  0.000  0.044
   20  0.000  0.000  0.000  0.000  0.000  0.000  0.000  0.000  0.000  0.000
   21  0.044  0.000  0.000  0.000  0.000  0.000  0.000  0.000  0.000  0.044
   22  0.044  0.000  0.000  0.000  0.000  0.000  0.000  0.000  0.000  0.044
   23  0.000  0.000  0.000  0.000  0.000  0.000  0.000  0.000  0.000  0.000
   24  0.000  0.000  0.000  0.000  0.000  0.000  0.000  0.000  0.000  0.000
   25  0.044  0.000  0.000  0.000  0.000  0.000  0.000  0.000  0.000  0.044
   26  0.044  0.000  0.000  0.000  0.000  0.000  0.000  0.000  0.000  0.044
   27  0.000  0.000  0.000  0.000  0.000  0.000  0.000  0.000  0.000  0.000
   28  0.000  0.000  0.000  0.000  0.000  0.000  0.000  0.000  0.000  0.000
   29  0.044  0.000  0.000  0.000  0.000  0.000  0.000  0.000  0.000  0.044
   30  0.044  0.000  0.000  0.000  0.000  0.000  0.000  0.000  0.000  0.044
   31  0.044  0.000  0.000  0.000  0.000  0.000  0.000  0.000  0.000  0.044
   32  0.044  0.000  0.000  0.000  0.000  0.000  0.000  0.000  0.000  0.044
   33  0.044  0.000  0.000  0.000  0.000  0.000  0.000  0.000  0.000  0.044
   34  0.044  0.000  0.000  0.000  0.000  0.000  0.000  0.000  0.000  0.044
   35  0.000  0.000  0.000  0.000  0.000  0.000  0.000  0.000  0.000  0.000
   36  0.000  0.000  0.000  0.000  0.000  0.000  0.000  0.000  0.000  0.000
tot    0.702  0.002  0.026  0.001  0.000  0.031  0.000  0.012  0.000  0.774
 
band    15 # energy  -13.62499867 # occ.  1.00000000
 
ion      s     py     pz     px    dxy    dyz    dz2    dxz  x2-y2    tot
    1  0.001  0.001  0.000  0.002  0.002  0.000  0.000  0.000  0.001  0.007
    2  0.001  0.001  0.000  0.002  0.002  0.000  0.000  0.000  0.001  0.007
    3  0.001  0.001  0.000  0.002  0.002  0.000  0.000  0.000  0.001  0.007
    4  0.001  0.001  0.000  0.002  0.002  0.000  0.000  0.000  0.001  0.007
    5  0.001  0.001  0.000  0.002  0.002  0.000  0.000  0.000  0.001  0.007
    6  0.001  0.001  0.000  0.002  0.002  0.000  0.000  0.000  0.001  0.007
    7  0.001  0.001  0.000  0.002  0.002  0.000  0.000  0.000  0.001  0.007
    8  0.001  0.001  0.000  0.002  0.002  0.000  0.000  0.000  0.001  0.007
    9  0.001  0.001  0.000  0.002  0.002  0.000  0.000  0.000  0.001  0.007
   10  0.001  0.001  0.000  0.002  0.002  0.000  0.000  0.000  0.001  0.007
   11  0.001  0.001  0.000  0.002  0.002  0.000  0.000  0.000  0.001  0.007
   12  0.001  0.001  0.000  0.002  0.002  0.000  0.000  0.000  0.001  0.007
   13  0.029  0.000  0.000  0.000  0.000  0.000  0.000  0.000  0.000  0.030
   14  0.029  0.000  0.000  0.000  0.000  0.000  0.000  0.000  0.000  0.030
   15  0.029  0.000  0.000  0.000  0.000  0.000  0.000  0.000  0.000  0.030
   16  0.029  0.000  0.000  0.000  0.000  0.000  0.000  0.000  0.000  0.030
   17  0.029  0.000  0.000  0.000  0.000  0.000  0.000  0.000  0.000  0.030
   18  0.029  0.000  0.000  0.000  0.000  0.000  0.000  0.000  0.000  0.030
   19  0.029  0.000  0.000  0.000  0.000  0.000  0.000  0.000  0.000  0.030
   20  0.029  0.000  0.000  0.000  0.000  0.000  0.000  0.000  0.000  0.030
   21  0.029  0.000  0.000  0.000  0.000  0.000  0.000  0.000  0.000  0.030
   22  0.029  0.000  0.000  0.000  0.000  0.000  0.000  0.000  0.000  0.030
   23  0.029  0.000  0.000  0.000  0.000  0.000  0.000  0.000  0.000  0.030
   24  0.029  0.000  0.000  0.000  0.000  0.000  0.000  0.000  0.000  0.030
   25  0.029  0.000  0.000  0.000  0.000  0.000  0.000  0.000  0.000  0.030
   26  0.029  0.000  0.000  0.000  0.000  0.000  0.000  0.000  0.000  0.030
   27  0.029  0.000  0.000  0.000  0.000  0.000  0.000  0.000  0.000  0.030
   28  0.029  0.000  0.000  0.000  0.000  0.000  0.000  0.000  0.000  0.030
   29  0.029  0.000  0.000  0.000  0.000  0.000  0.000  0.000  0.000  0.030
   30  0.029  0.000  0.000  0.000  0.000  0.000  0.000  0.000  0.000  0.030
   31  0.029  0.000  0.000  0.000  0.000  0.000  0.000  0.000  0.000  0.030
   32  0.029  0.000  0.000  0.000  0.000  0.000  0.000  0.000  0.000  0.030
   33  0.029  0.000  0.000  0.000  0.000  0.000  0.000  0.000  0.000  0.030
   34  0.029  0.000  0.000  0.000  0.000  0.000  0.000  0.000  0.000  0.030
   35  0.029  0.000  0.000  0.000  0.000  0.000  0.000  0.000  0.000  0.030
   36  0.029  0.000  0.000  0.000  0.000  0.000  0.000  0.000  0.000  0.030
tot    0.722  0.009  0.008  0.026  0.024  0.000  0.001  0.000  0.008  0.798
 
band    16 # energy  -13.53739492 # occ.  1.00000000
 
ion      s     py     pz     px    dxy    dyz    dz2    dxz  x2-y2    tot
    1  0.000  0.000  0.001  0.000  0.000  0.006  0.000  0.002  0.000  0.010
    2  0.000  0.000  0.000  0.000  0.000  0.000  0.000  0.004  0.000  0.004
    3  0.000  0.000  0.001  0.000  0.000  0.007  0.000  0.002  0.000  0.010
    4  0.000  0.000  0.004  0.000  0.000  0.000  0.000  0.000  0.000  0.004
    5  0.000  0.000  0.000  0.000  0.000  0.000  0.000  0.004  0.000  0.004
    6  0.000  0.000  0.000  0.000  0.000  0.004  0.000  0.000  0.000  0.004
    7  0.000  0.000  0.000  0.000  0.000  0.002  0.000  0.006  0.000  0.008
    8  0.000  0.000  0.000  0.000  0.000  0.004  0.000  0.000  0.000  0.004
    9  0.000  0.000  0.000  0.000  0.000  0.002  0.000  0.006  0.000  0.008
   10  0.000  0.000  0.001  0.000  0.000  0.007  0.000  0.002  0.000  0.010
   11  0.000  0.000  0.004  0.000  0.000  0.000  0.000  0.000  0.000  0.004
   12  0.000  0.000  0.001  0.000  0.000  0.006  0.000  0.002  0.000  0.010
   13  0.028  0.000  0.000  0.000  0.000  0.000  0.000  0.000  0.000  0.028
   14  0.007  0.000  0.000  0.000  0.000  0.000  0.000  0.000  0.000  0.007
   15  0.007  0.000  0.000  0.000  0.000  0.000  0.000  0.000  0.000  0.007
   16  0.023  0.000  0.000  0.000  0.000  0.000  0.000  0.000  0.000  0.023
   17  0.023  0.000  0.000  0.000  0.000  0.000  0.000  0.000  0.000  0.023
   18  0.007  0.000  0.000  0.000  0.000  0.000  0.000  0.000  0.000  0.007
   19  0.007  0.000  0.000  0.000  0.000  0.000  0.000  0.000  0.000  0.007
   20  0.028  0.000  0.000  0.000  0.000  0.000  0.000  0.000  0.000  0.028
   21  0.007  0.000  0.000  0.000  0.000  0.000  0.000  0.000  0.000  0.007
   22  0.007  0.000  0.000  0.000  0.000  0.000  0.000  0.000  0.000  0.007
   23  0.092  0.000  0.000  0.000  0.000  0.000  0.000  0.000  0.000  0.092
   24  0.092  0.000  0.000  0.000  0.000  0.000  0.000  0.000  0.000  0.092
   25  0.023  0.000  0.000  0.000  0.000  0.000  0.000  0.000  0.000  0.023
   26  0.023  0.000  0.000  0.000  0.000  0.000  0.000  0.000  0.000  0.023
   27  0.028  0.000  0.000  0.000  0.000  0.000  0.000  0.000  0.000  0.028
   28  0.028  0.000  0.000  0.000  0.000  0.000  0.000  0.000  0.000  0.028
   29  0.023  0.000  0.000  0.000  0.000  0.000  0.000  0.000  0.000  0.023
   30  0.007  0.000  0.000  0.000  0.000  0.000  0.000  0.000  0.000  0.007
   31  0.007  0.000  0.000  0.000  0.000  0.000  0.000  0.000  0.000  0.007
   32  0.023  0.000  0.000  0.000  0.000  0.000  0.000  0.000  0.000  0.023
   33  0.023  0.000  0.000  0.000  0.000  0.000  0.000  0.000  0.000  0.023
   34  0.023  0.000  0.000  0.000  0.000  0.000  0.000  0.000  0.000  0.023
   35  0.092  0.000  0.000  0.000  0.000  0.000  0.000  0.000  0.000  0.092
   36  0.092  0.000  0.000  0.000  0.000  0.000  0.000  0.000  0.000  0.092
tot    0.716  0.001  0.015  0.001  0.000  0.038  0.000  0.029  0.000  0.800
 
band    17 # energy  -13.53735688 # occ.  1.00000000
 
ion      s     py     pz     px    dxy    dyz    dz2    dxz  x2-y2    tot
    1  0.000  0.000  0.003  0.000  0.000  0.002  0.000  0.001  0.000  0.006
    2  0.000  0.000  0.000  0.000  0.000  0.004  0.000  0.003  0.000  0.007
    3  0.000  0.000  0.003  0.000  0.000  0.002  0.000  0.001  0.000  0.006
    4  0.000  0.000  0.000  0.000  0.000  0.009  0.000  0.003  0.000  0.012
    5  0.000  0.000  0.000  0.000  0.000  0.004  0.000  0.003  0.000  0.007
    6  0.000  0.000  0.000  0.000  0.000  0.000  0.000  0.006  0.000  0.007
    7  0.000  0.000  0.000  0.000  0.000  0.002  0.000  0.001  0.000  0.003
    8  0.000  0.000  0.000  0.000  0.000  0.000  0.000  0.006  0.000  0.007
    9  0.000  0.000  0.000  0.000  0.000  0.002  0.000  0.001  0.000  0.003
   10  0.000  0.000  0.003  0.000  0.000  0.002  0.000  0.001  0.000  0.006
   11  0.000  0.000  0.000  0.000  0.000  0.009  0.000  0.003  0.000  0.012
   12  0.000  0.000  0.003  0.000  0.000  0.002  0.000  0.001  0.000  0.006
   13  0.000  0.000  0.000  0.000  0.000  0.000  0.000  0.000  0.000  0.000
   14  0.021  0.000  0.000  0.000  0.000  0.000  0.000  0.000  0.000  0.021
   15  0.021  0.000  0.000  0.000  0.000  0.000  0.000  0.000  0.000  0.021
   16  0.069  0.000  0.000  0.000  0.000  0.000  0.000  0.000  0.000  0.069
   17  0.069  0.000  0.000  0.000  0.000  0.000  0.000  0.000  0.000  0.069
   18  0.021  0.000  0.000  0.000  0.000  0.000  0.000  0.000  0.000  0.021
   19  0.021  0.000  0.000  0.000  0.000  0.000  0.000  0.000  0.000  0.021
   20  0.000  0.000  0.000  0.000  0.000  0.000  0.000  0.000  0.000  0.000
   21  0.021  0.000  0.000  0.000  0.000  0.000  0.000  0.000  0.000  0.021
   22  0.021  0.000  0.000  0.000  0.000  0.000  0.000  0.000  0.000  0.021
   23  0.000  0.000  0.000  0.000  0.000  0.000  0.000  0.000  0.000  0.000
   24  0.000  0.000  0.000  0.000  0.000  0.000  0.000  0.000  0.000  0.000
   25  0.069  0.000  0.000  0.000  0.000  0.000  0.000  0.000  0.000  0.069
   26  0.069  0.000  0.000  0.000  0.000  0.000  0.000  0.000  0.000  0.069
   27  0.000  0.000  0.000  0.000  0.000  0.000  0.000  0.000  0.000  0.000
   28  0.000  0.000  0.000  0.000  0.000  0.000  0.000  0.000  0.000  0.000
   29  0.069  0.000  0.000  0.000  0.000  0.000  0.000  0.000  0.000  0.069
   30  0.021  0.000  0.000  0.000  0.000  0.000  0.000  0.000  0.000  0.021
   31  0.021  0.000  0.000  0.000  0.000  0.000  0.000  0.000  0.000  0.021
   32  0.069  0.000  0.000  0.000  0.000  0.000  0.000  0.000  0.000  0.069
   33  0.069  0.000  0.000  0.000  0.000  0.000  0.000  0.000  0.000  0.069
   34  0.069  0.000  0.000  0.000  0.000  0.000  0.000  0.000  0.000  0.069
   35  0.000  0.000  0.000  0.000  0.000  0.000  0.000  0.000  0.000  0.000
   36  0.000  0.000  0.000  0.000  0.000  0.000  0.000  0.000  0.000  0.000
tot    0.716  0.001  0.015  0.001  0.000  0.038  0.000  0.029  0.000  0.800
 
band    18 # energy  -13.53692634 # occ.  1.00000000
 
ion      s     py     pz     px    dxy    dyz    dz2    dxz  x2-y2    tot
    1  0.000  0.000  0.000  0.000  0.000  0.004  0.000  0.000  0.000  0.004
    2  0.000  0.000  0.001  0.000  0.000  0.007  0.000  0.002  0.000  0.010
    3  0.000  0.000  0.000  0.000  0.000  0.000  0.000  0.004  0.000  0.004
    4  0.000  0.000  0.000  0.000  0.000  0.002  0.000  0.006  0.000  0.008
    5  0.000  0.000  0.001  0.000  0.000  0.007  0.000  0.002  0.000  0.010
    6  0.000  0.000  0.001  0.000  0.000  0.006  0.000  0.002  0.000  0.010
    7  0.000  0.000  0.004  0.000  0.000  0.000  0.000  0.000  0.000  0.004
    8  0.000  0.000  0.001  0.000  0.000  0.006  0.000  0.002  0.000  0.010
    9  0.000  0.000  0.004  0.000  0.000  0.000  0.000  0.000  0.000  0.004
   10  0.000  0.000  0.000  0.000  0.000  0.000  0.000  0.004  0.000  0.004
   11  0.000  0.000  0.000  0.000  0.000  0.002  0.000  0.006  0.000  0.008
   12  0.000  0.000  0.000  0.000  0.000  0.004  0.000  0.000  0.000  0.004
   13  0.092  0.000  0.000  0.000  0.000  0.000  0.000  0.000  0.000  0.092
   14  0.023  0.000  0.000  0.000  0.000  0.000  0.000  0.000  0.000  0.023
   15  0.023  0.000  0.000  0.000  0.000  0.000  0.000  0.000  0.000  0.023
   16  0.007  0.000  0.000  0.000  0.000  0.000  0.000  0.000  0.000  0.007
   17  0.007  0.000  0.000  0.000  0.000  0.000  0.000  0.000  0.000  0.007
   18  0.023  0.000  0.000  0.000  0.000  0.000  0.000  0.000  0.000  0.023
   19  0.023  0.000  0.000  0.000  0.000  0.000  0.000  0.000  0.000  0.023
   20  0.092  0.000  0.000  0.000  0.000  0.000  0.000  0.000  0.000  0.092
   21  0.023  0.000  0.000  0.000  0.000  0.000  0.000  0.000  0.000  0.023
   22  0.023  0.000  0.000  0.000  0.000  0.000  0.000  0.000  0.000  0.023
   23  0.028  0.000  0.000  0.000  0.000  0.000  0.000  0.000  0.000  0.028
   24  0.028  0.000  0.000  0.000  0.000  0.000  0.000  0.000  0.000  0.028
   25  0.007  0.000  0.000  0.000  0.000  0.000  0.000  0.000  0.000  0.007
   26  0.007  0.000  0.000  0.000  0.000  0.000  0.000  0.000  0.000  0.007
   27  0.092  0.000  0.000  0.000  0.000  0.000  0.000  0.000  0.000  0.092
   28  0.092  0.000  0.000  0.000  0.000  0.000  0.000  0.000  0.000  0.092
   29  0.007  0.000  0.000  0.000  0.000  0.000  0.000  0.000  0.000  0.007
   30  0.023  0.000  0.000  0.000  0.000  0.000  0.000  0.000  0.000  0.023
   31  0.023  0.000  0.000  0.000  0.000  0.000  0.000  0.000  0.000  0.023
   32  0.007  0.000  0.000  0.000  0.000  0.000  0.000  0.000  0.000  0.007
   33  0.007  0.000  0.000  0.000  0.000  0.000  0.000  0.000  0.000  0.007
   34  0.007  0.000  0.000  0.000  0.000  0.000  0.000  0.000  0.000  0.007
   35  0.028  0.000  0.000  0.000  0.000  0.000  0.000  0.000  0.000  0.028
   36  0.028  0.000  0.000  0.000  0.000  0.000  0.000  0.000  0.000  0.028
tot    0.716  0.001  0.015  0.001  0.000  0.038  0.000  0.029  0.000  0.800
 
band    19 # energy  -13.53688837 # occ.  1.00000000
 
ion      s     py     pz     px    dxy    dyz    dz2    dxz  x2-y2    tot
    1  0.000  0.000  0.000  0.000  0.000  0.000  0.000  0.006  0.000  0.007
    2  0.000  0.000  0.003  0.000  0.000  0.002  0.000  0.001  0.000  0.006
    3  0.000  0.000  0.000  0.000  0.000  0.004  0.000  0.003  0.000  0.007
    4  0.000  0.000  0.000  0.000  0.000  0.002  0.000  0.001  0.000  0.003
    5  0.000  0.000  0.003  0.000  0.000  0.002  0.000  0.001  0.000  0.006
    6  0.000  0.000  0.003  0.000  0.000  0.002  0.000  0.001  0.000  0.006
    7  0.000  0.000  0.000  0.000  0.000  0.009  0.000  0.003  0.000  0.012
    8  0.000  0.000  0.003  0.000  0.000  0.002  0.000  0.001  0.000  0.006
    9  0.000  0.000  0.000  0.000  0.000  0.009  0.000  0.003  0.000  0.012
   10  0.000  0.000  0.000  0.000  0.000  0.004  0.000  0.003  0.000  0.007
   11  0.000  0.000  0.000  0.000  0.000  0.002  0.000  0.001  0.000  0.003
   12  0.000  0.000  0.000  0.000  0.000  0.000  0.000  0.006  0.000  0.007
   13  0.000  0.000  0.000  0.000  0.000  0.000  0.000  0.000  0.000  0.000
   14  0.069  0.000  0.000  0.000  0.000  0.000  0.000  0.000  0.000  0.069
   15  0.069  0.000  0.000  0.000  0.000  0.000  0.000  0.000  0.000  0.069
   16  0.021  0.000  0.000  0.000  0.000  0.000  0.000  0.000  0.000  0.021
   17  0.021  0.000  0.000  0.000  0.000  0.000  0.000  0.000  0.000  0.021
   18  0.069  0.000  0.000  0.000  0.000  0.000  0.000  0.000  0.000  0.069
   19  0.069  0.000  0.000  0.000  0.000  0.000  0.000  0.000  0.000  0.069
   20  0.000  0.000  0.000  0.000  0.000  0.000  0.000  0.000  0.000  0.000
   21  0.069  0.000  0.000  0.000  0.000  0.000  0.000  0.000  0.000  0.069
   22  0.069  0.000  0.000  0.000  0.000  0.000  0.000  0.000  0.000  0.069
   23  0.000  0.000  0.000  0.000  0.000  0.000  0.000  0.000  0.000  0.000
   24  0.000  0.000  0.000  0.000  0.000  0.000  0.000  0.000  0.000  0.000
   25  0.021  0.000  0.000  0.000  0.000  0.000  0.000  0.000  0.000  0.021
   26  0.021  0.000  0.000  0.000  0.000  0.000  0.000  0.000  0.000  0.021
   27  0.000  0.000  0.000  0.000  0.000  0.000  0.000  0.000  0.000  0.000
   28  0.000  0.000  0.000  0.000  0.000  0.000  0.000  0.000  0.000  0.000
   29  0.021  0.000  0.000  0.000  0.000  0.000  0.000  0.000  0.000  0.021
   30  0.069  0.000  0.000  0.000  0.000  0.000  0.000  0.000  0.000  0.069
   31  0.069  0.000  0.000  0.000  0.000  0.000  0.000  0.000  0.000  0.069
   32  0.021  0.000  0.000  0.000  0.000  0.000  0.000  0.000  0.000  0.021
   33  0.021  0.000  0.000  0.000  0.000  0.000  0.000  0.000  0.000  0.021
   34  0.021  0.000  0.000  0.000  0.000  0.000  0.000  0.000  0.000  0.021
   35  0.000  0.000  0.000  0.000  0.000  0.000  0.000  0.000  0.000  0.000
   36  0.000  0.000  0.000  0.000  0.000  0.000  0.000  0.000  0.000  0.000
tot    0.716  0.001  0.015  0.001  0.000  0.038  0.000  0.029  0.000  0.800
 
band    20 # energy  -13.38406475 # occ.  1.00000000
 
ion      s     py     pz     px    dxy    dyz    dz2    dxz  x2-y2    tot
    1  0.000  0.000  0.000  0.000  0.000  0.002  0.000  0.005  0.000  0.007
    2  0.000  0.000  0.000  0.000  0.000  0.002  0.000  0.005  0.000  0.007
    3  0.000  0.000  0.000  0.000  0.000  0.002  0.000  0.005  0.000  0.007
    4  0.000  0.000  0.000  0.000  0.000  0.002  0.000  0.005  0.000  0.007
    5  0.000  0.000  0.000  0.000  0.000  0.002  0.000  0.005  0.000  0.007
    6  0.000  0.000  0.000  0.000  0.000  0.002  0.000  0.005  0.000  0.007
    7  0.000  0.000  0.000  0.000  0.000  0.002  0.000  0.005  0.000  0.007
    8  0.000  0.000  0.000  0.000  0.000  0.002  0.000  0.005  0.000  0.007
    9  0.000  0.000  0.000  0.000  0.000  0.002  0.000  0.005  0.000  0.007
   10  0.000  0.000  0.000  0.000  0.000  0.002  0.000  0.005  0.000  0.007
   11  0.000  0.000  0.000  0.000  0.000  0.002  0.000  0.005  0.000  0.007
   12  0.000  0.000  0.000  0.000  0.000  0.002  0.000  0.005  0.000  0.007
   13  0.030  0.000  0.000  0.000  0.000  0.000  0.000  0.000  0.000  0.030
   14  0.030  0.000  0.000  0.000  0.000  0.000  0.000  0.000  0.000  0.030
   15  0.030  0.000  0.000  0.000  0.000  0.000  0.000  0.000  0.000  0.030
   16  0.030  0.000  0.000  0.000  0.000  0.000  0.000  0.000  0.000  0.030
   17  0.030  0.000  0.000  0.000  0.000  0.000  0.000  0.000  0.000  0.030
   18  0.030  0.000  0.000  0.000  0.000  0.000  0.000  0.000  0.000  0.030
   19  0.030  0.000  0.000  0.000  0.000  0.000  0.000  0.000  0.000  0.030
   20  0.030  0.000  0.000  0.000  0.000  0.000  0.000  0.000  0.000  0.030
   21  0.030  0.000  0.000  0.000  0.000  0.000  0.000  0.000  0.000  0.030
   22  0.030  0.000  0.000  0.000  0.000  0.000  0.000  0.000  0.000  0.030
   23  0.030  0.000  0.000  0.000  0.000  0.000  0.000  0.000  0.000  0.030
   24  0.030  0.000  0.000  0.000  0.000  0.000  0.000  0.000  0.000  0.030
   25  0.030  0.000  0.000  0.000  0.000  0.000  0.000  0.000  0.000  0.030
   26  0.030  0.000  0.000  0.000  0.000  0.000  0.000  0.000  0.000  0.030
   27  0.030  0.000  0.000  0.000  0.000  0.000  0.000  0.000  0.000  0.030
   28  0.030  0.000  0.000  0.000  0.000  0.000  0.000  0.000  0.000  0.030
   29  0.030  0.000  0.000  0.000  0.000  0.000  0.000  0.000  0.000  0.030
   30  0.030  0.000  0.000  0.000  0.000  0.000  0.000  0.000  0.000  0.030
   31  0.030  0.000  0.000  0.000  0.000  0.000  0.000  0.000  0.000  0.030
   32  0.030  0.000  0.000  0.000  0.000  0.000  0.000  0.000  0.000  0.030
   33  0.030  0.000  0.000  0.000  0.000  0.000  0.000  0.000  0.000  0.030
   34  0.030  0.000  0.000  0.000  0.000  0.000  0.000  0.000  0.000  0.030
   35  0.030  0.000  0.000  0.000  0.000  0.000  0.000  0.000  0.000  0.030
   36  0.030  0.000  0.000  0.000  0.000  0.000  0.000  0.000  0.000  0.030
tot    0.726  0.000  0.009  0.000  0.000  0.020  0.000  0.061  0.000  0.817
 
band    21 # energy  -13.38324354 # occ.  1.00000000
 
ion      s     py     pz     px    dxy    dyz    dz2    dxz  x2-y2    tot
    1  0.000  0.003  0.000  0.000  0.000  0.000  0.000  0.000  0.003  0.007
    2  0.000  0.001  0.000  0.003  0.002  0.000  0.000  0.000  0.001  0.007
    3  0.000  0.001  0.000  0.003  0.002  0.000  0.000  0.000  0.001  0.007
    4  0.000  0.001  0.000  0.003  0.002  0.000  0.000  0.000  0.001  0.006
    5  0.000  0.001  0.000  0.003  0.002  0.000  0.000  0.000  0.001  0.007
    6  0.000  0.003  0.000  0.000  0.000  0.000  0.000  0.000  0.003  0.007
    7  0.000  0.001  0.000  0.003  0.002  0.000  0.000  0.000  0.001  0.006
    8  0.000  0.003  0.000  0.000  0.000  0.000  0.000  0.000  0.003  0.007
    9  0.000  0.001  0.000  0.003  0.002  0.000  0.000  0.000  0.001  0.006
   10  0.000  0.001  0.000  0.003  0.002  0.000  0.000  0.000  0.001  0.007
   11  0.000  0.001  0.000  0.003  0.002  0.000  0.000  0.000  0.001  0.006
   12  0.000  0.003  0.000  0.000  0.000  0.000  0.000  0.000  0.003  0.007
   13  0.060  0.000  0.001  0.000  0.000  0.000  0.000  0.000  0.000  0.061
   14  0.015  0.000  0.000  0.000  0.000  0.000  0.000  0.000  0.000  0.015
   15  0.015  0.000  0.000  0.000  0.000  0.000  0.000  0.000  0.000  0.015
   16  0.015  0.000  0.000  0.000  0.000  0.000  0.000  0.000  0.000  0.015
   17  0.015  0.000  0.000  0.000  0.000  0.000  0.000  0.000  0.000  0.015
   18  0.015  0.000  0.000  0.000  0.000  0.000  0.000  0.000  0.000  0.015
   19  0.015  0.000  0.000  0.000  0.000  0.000  0.000  0.000  0.000  0.015
   20  0.060  0.000  0.001  0.000  0.000  0.000  0.000  0.000  0.000  0.061
   21  0.015  0.000  0.000  0.000  0.000  0.000  0.000  0.000  0.000  0.015
   22  0.015  0.000  0.000  0.000  0.000  0.000  0.000  0.000  0.000  0.015
   23  0.060  0.000  0.001  0.000  0.000  0.000  0.000  0.000  0.000  0.061
   24  0.060  0.000  0.001  0.000  0.000  0.000  0.000  0.000  0.000  0.061
   25  0.015  0.000  0.000  0.000  0.000  0.000  0.000  0.000  0.000  0.015
   26  0.015  0.000  0.000  0.000  0.000  0.000  0.000  0.000  0.000  0.015
   27  0.060  0.000  0.001  0.000  0.000  0.000  0.000  0.000  0.000  0.061
   28  0.060  0.000  0.001  0.000  0.000  0.000  0.000  0.000  0.000  0.061
   29  0.015  0.000  0.000  0.000  0.000  0.000  0.000  0.000  0.000  0.015
   30  0.015  0.000  0.000  0.000  0.000  0.000  0.000  0.000  0.000  0.015
   31  0.015  0.000  0.000  0.000  0.000  0.000  0.000  0.000  0.000  0.015
   32  0.015  0.000  0.000  0.000  0.000  0.000  0.000  0.000  0.000  0.015
   33  0.015  0.000  0.000  0.000  0.000  0.000  0.000  0.000  0.000  0.015
   34  0.015  0.000  0.000  0.000  0.000  0.000  0.000  0.000  0.000  0.015
   35  0.060  0.000  0.001  0.000  0.000  0.000  0.000  0.000  0.000  0.061
   36  0.060  0.000  0.001  0.000  0.000  0.000  0.000  0.000  0.000  0.061
tot    0.724  0.021  0.009  0.020  0.019  0.000  0.001  0.000  0.019  0.811
 
band    22 # energy  -13.38322373 # occ.  1.00000000
 
ion      s     py     pz     px    dxy    dyz    dz2    dxz  x2-y2    tot
    1  0.000  0.000  0.000  0.003  0.003  0.000  0.000  0.000  0.000  0.007
    2  0.000  0.003  0.000  0.001  0.001  0.000  0.000  0.000  0.002  0.007
    3  0.000  0.003  0.000  0.001  0.001  0.000  0.000  0.000  0.002  0.007
    4  0.000  0.003  0.000  0.001  0.001  0.000  0.000  0.000  0.002  0.007
    5  0.000  0.003  0.000  0.001  0.001  0.000  0.000  0.000  0.002  0.007
    6  0.000  0.000  0.000  0.003  0.003  0.000  0.000  0.000  0.000  0.007
    7  0.000  0.003  0.000  0.001  0.001  0.000  0.000  0.000  0.002  0.007
    8  0.000  0.000  0.000  0.003  0.003  0.000  0.000  0.000  0.000  0.007
    9  0.000  0.003  0.000  0.001  0.001  0.000  0.000  0.000  0.002  0.007
   10  0.000  0.003  0.000  0.001  0.001  0.000  0.000  0.000  0.002  0.007
   11  0.000  0.003  0.000  0.001  0.001  0.000  0.000  0.000  0.002  0.007
   12  0.000  0.000  0.000  0.003  0.003  0.000  0.000  0.000  0.000  0.007
   13  0.000  0.000  0.000  0.000  0.000  0.000  0.000  0.000  0.000  0.000
   14  0.045  0.000  0.001  0.000  0.000  0.000  0.000  0.000  0.000  0.046
   15  0.045  0.000  0.001  0.000  0.000  0.000  0.000  0.000  0.000  0.046
   16  0.045  0.000  0.001  0.000  0.000  0.000  0.000  0.000  0.000  0.046
   17  0.045  0.000  0.001  0.000  0.000  0.000  0.000  0.000  0.000  0.046
   18  0.045  0.000  0.001  0.000  0.000  0.000  0.000  0.000  0.000  0.046
   19  0.045  0.000  0.001  0.000  0.000  0.000  0.000  0.000  0.000  0.046
   20  0.000  0.000  0.000  0.000  0.000  0.000  0.000  0.000  0.000  0.000
   21  0.045  0.000  0.001  0.000  0.000  0.000  0.000  0.000  0.000  0.046
   22  0.045  0.000  0.001  0.000  0.000  0.000  0.000  0.000  0.000  0.046
   23  0.000  0.000  0.000  0.000  0.000  0.000  0.000  0.000  0.000  0.000
   24  0.000  0.000  0.000  0.000  0.000  0.000  0.000  0.000  0.000  0.000
   25  0.045  0.000  0.001  0.000  0.000  0.000  0.000  0.000  0.000  0.046
   26  0.045  0.000  0.001  0.000  0.000  0.000  0.000  0.000  0.000  0.046
   27  0.000  0.000  0.000  0.000  0.000  0.000  0.000  0.000  0.000  0.000
   28  0.000  0.000  0.000  0.000  0.000  0.000  0.000  0.000  0.000  0.000
   29  0.045  0.000  0.001  0.000  0.000  0.000  0.000  0.000  0.000  0.046
   30  0.045  0.000  0.001  0.000  0.000  0.000  0.000  0.000  0.000  0.046
   31  0.045  0.000  0.001  0.000  0.000  0.000  0.000  0.000  0.000  0.046
   32  0.045  0.000  0.001  0.000  0.000  0.000  0.000  0.000  0.000  0.046
   33  0.045  0.000  0.001  0.000  0.000  0.000  0.000  0.000  0.000  0.046
   34  0.045  0.000  0.001  0.000  0.000  0.000  0.000  0.000  0.000  0.046
   35  0.000  0.000  0.000  0.000  0.000  0.000  0.000  0.000  0.000  0.000
   36  0.000  0.000  0.000  0.000  0.000  0.000  0.000  0.000  0.000  0.000
tot    0.724  0.021  0.009  0.020  0.019  0.000  0.001  0.000  0.019  0.811
 
band    23 # energy  -13.21898867 # occ.  1.00000000
 
ion      s     py     pz     px    dxy    dyz    dz2    dxz  x2-y2    tot
    1  0.000  0.000  0.000  0.000  0.000  0.000  0.000  0.007  0.000  0.007
    2  0.000  0.000  0.000  0.000  0.000  0.005  0.000  0.002  0.000  0.007
    3  0.000  0.000  0.000  0.000  0.000  0.005  0.000  0.002  0.000  0.007
    4  0.000  0.000  0.000  0.000  0.000  0.006  0.000  0.002  0.000  0.007
    5  0.000  0.000  0.000  0.000  0.000  0.005  0.000  0.002  0.000  0.007
    6  0.000  0.000  0.000  0.000  0.000  0.000  0.000  0.007  0.000  0.007
    7  0.000  0.000  0.000  0.000  0.000  0.006  0.000  0.002  0.000  0.007
    8  0.000  0.000  0.000  0.000  0.000  0.000  0.000  0.007  0.000  0.007
    9  0.000  0.000  0.000  0.000  0.000  0.006  0.000  0.002  0.000  0.007
   10  0.000  0.000  0.000  0.000  0.000  0.005  0.000  0.002  0.000  0.007
   11  0.000  0.000  0.000  0.000  0.000  0.006  0.000  0.002  0.000  0.007
   12  0.000  0.000  0.000  0.000  0.000  0.000  0.000  0.007  0.000  0.007
   13  0.000  0.000  0.000  0.000  0.000  0.000  0.000  0.000  0.000  0.000
   14  0.046  0.000  0.000  0.000  0.000  0.000  0.000  0.000  0.000  0.046
   15  0.046  0.000  0.000  0.000  0.000  0.000  0.000  0.000  0.000  0.047
   16  0.046  0.000  0.000  0.000  0.000  0.000  0.000  0.000  0.000  0.047
   17  0.046  0.000  0.000  0.000  0.000  0.000  0.000  0.000  0.000  0.046
   18  0.046  0.000  0.000  0.000  0.000  0.000  0.000  0.000  0.000  0.047
   19  0.046  0.000  0.000  0.000  0.000  0.000  0.000  0.000  0.000  0.047
   20  0.000  0.000  0.000  0.000  0.000  0.000  0.000  0.000  0.000  0.000
   21  0.046  0.000  0.000  0.000  0.000  0.000  0.000  0.000  0.000  0.046
   22  0.046  0.000  0.000  0.000  0.000  0.000  0.000  0.000  0.000  0.047
   23  0.000  0.000  0.000  0.000  0.000  0.000  0.000  0.000  0.000  0.000
   24  0.000  0.000  0.000  0.000  0.000  0.000  0.000  0.000  0.000  0.000
   25  0.046  0.000  0.000  0.000  0.000  0.000  0.000  0.000  0.000  0.046
   26  0.046  0.000  0.000  0.000  0.000  0.000  0.000  0.000  0.000  0.046
   27  0.000  0.000  0.000  0.000  0.000  0.000  0.000  0.000  0.000  0.000
   28  0.000  0.000  0.000  0.000  0.000  0.000  0.000  0.000  0.000  0.000
   29  0.046  0.000  0.000  0.000  0.000  0.000  0.000  0.000  0.000  0.047
   30  0.046  0.000  0.000  0.000  0.000  0.000  0.000  0.000  0.000  0.047
   31  0.046  0.000  0.000  0.000  0.000  0.000  0.000  0.000  0.000  0.047
   32  0.046  0.000  0.000  0.000  0.000  0.000  0.000  0.000  0.000  0.046
   33  0.046  0.000  0.000  0.000  0.000  0.000  0.000  0.000  0.000  0.046
   34  0.046  0.000  0.000  0.000  0.000  0.000  0.000  0.000  0.000  0.046
   35  0.000  0.000  0.000  0.000  0.000  0.000  0.000  0.000  0.000  0.000
   36  0.000  0.000  0.000  0.000  0.000  0.000  0.000  0.000  0.000  0.000
tot    0.740  0.000  0.004  0.000  0.000  0.044  0.000  0.044  0.000  0.832
 
band    24 # energy  -13.21892656 # occ.  1.00000000
 
ion      s     py     pz     px    dxy    dyz    dz2    dxz  x2-y2    tot
    1  0.000  0.000  0.000  0.000  0.000  0.007  0.000  0.000  0.000  0.007
    2  0.000  0.000  0.000  0.000  0.000  0.002  0.000  0.005  0.000  0.007
    3  0.000  0.000  0.000  0.000  0.000  0.002  0.000  0.005  0.000  0.007
    4  0.000  0.000  0.000  0.000  0.000  0.002  0.000  0.005  0.000  0.007
    5  0.000  0.000  0.000  0.000  0.000  0.002  0.000  0.005  0.000  0.007
    6  0.000  0.000  0.000  0.000  0.000  0.007  0.000  0.000  0.000  0.007
    7  0.000  0.000  0.000  0.000  0.000  0.002  0.000  0.005  0.000  0.007
    8  0.000  0.000  0.000  0.000  0.000  0.007  0.000  0.000  0.000  0.007
    9  0.000  0.000  0.000  0.000  0.000  0.002  0.000  0.005  0.000  0.007
   10  0.000  0.000  0.000  0.000  0.000  0.002  0.000  0.005  0.000  0.007
   11  0.000  0.000  0.000  0.000  0.000  0.002  0.000  0.005  0.000  0.007
   12  0.000  0.000  0.000  0.000  0.000  0.007  0.000  0.000  0.000  0.007
   13  0.062  0.000  0.000  0.000  0.000  0.000  0.000  0.000  0.000  0.062
   14  0.015  0.000  0.000  0.000  0.000  0.000  0.000  0.000  0.000  0.016
   15  0.015  0.000  0.000  0.000  0.000  0.000  0.000  0.000  0.000  0.016
   16  0.015  0.000  0.000  0.000  0.000  0.000  0.000  0.000  0.000  0.015
   17  0.015  0.000  0.000  0.000  0.000  0.000  0.000  0.000  0.000  0.015
   18  0.015  0.000  0.000  0.000  0.000  0.000  0.000  0.000  0.000  0.015
   19  0.015  0.000  0.000  0.000  0.000  0.000  0.000  0.000  0.000  0.015
   20  0.062  0.000  0.000  0.000  0.000  0.000  0.000  0.000  0.000  0.062
   21  0.015  0.000  0.000  0.000  0.000  0.000  0.000  0.000  0.000  0.016
   22  0.015  0.000  0.000  0.000  0.000  0.000  0.000  0.000  0.000  0.016
   23  0.062  0.000  0.000  0.000  0.000  0.000  0.000  0.000  0.000  0.062
   24  0.062  0.000  0.000  0.000  0.000  0.000  0.000  0.000  0.000  0.062
   25  0.015  0.000  0.000  0.000  0.000  0.000  0.000  0.000  0.000  0.016
   26  0.015  0.000  0.000  0.000  0.000  0.000  0.000  0.000  0.000  0.016
   27  0.062  0.000  0.000  0.000  0.000  0.000  0.000  0.000  0.000  0.062
   28  0.062  0.000  0.000  0.000  0.000  0.000  0.000  0.000  0.000  0.062
   29  0.015  0.000  0.000  0.000  0.000  0.000  0.000  0.000  0.000  0.015
   30  0.015  0.000  0.000  0.000  0.000  0.000  0.000  0.000  0.000  0.015
   31  0.015  0.000  0.000  0.000  0.000  0.000  0.000  0.000  0.000  0.015
   32  0.015  0.000  0.000  0.000  0.000  0.000  0.000  0.000  0.000  0.015
   33  0.015  0.000  0.000  0.000  0.000  0.000  0.000  0.000  0.000  0.016
   34  0.015  0.000  0.000  0.000  0.000  0.000  0.000  0.000  0.000  0.016
   35  0.062  0.000  0.000  0.000  0.000  0.000  0.000  0.000  0.000  0.062
   36  0.062  0.000  0.000  0.000  0.000  0.000  0.000  0.000  0.000  0.062
tot    0.740  0.000  0.004  0.000  0.000  0.044  0.000  0.044  0.000  0.832
 
band    25 # energy   -6.72790591 # occ.  1.00000000
 
ion      s     py     pz     px    dxy    dyz    dz2    dxz  x2-y2    tot
    1  0.009  0.000  0.000  0.001  0.004  0.000  0.002  0.000  0.001  0.019
    2  0.009  0.000  0.000  0.001  0.004  0.000  0.002  0.000  0.001  0.019
    3  0.009  0.000  0.000  0.001  0.004  0.000  0.002  0.000  0.001  0.019
    4  0.009  0.000  0.000  0.001  0.004  0.000  0.002  0.000  0.001  0.019
    5  0.009  0.000  0.000  0.001  0.004  0.000  0.002  0.000  0.001  0.019
    6  0.009  0.000  0.000  0.001  0.004  0.000  0.002  0.000  0.001  0.019
    7  0.009  0.000  0.000  0.001  0.004  0.000  0.002  0.000  0.001  0.019
    8  0.009  0.000  0.000  0.001  0.004  0.000  0.002  0.000  0.001  0.019
    9  0.009  0.000  0.000  0.001  0.004  0.000  0.002  0.000  0.001  0.019
   10  0.009  0.000  0.000  0.001  0.004  0.000  0.002  0.000  0.001  0.019
   11  0.009  0.000  0.000  0.001  0.004  0.000  0.002  0.000  0.001  0.019
   12  0.009  0.000  0.000  0.001  0.004  0.000  0.002  0.000  0.001  0.019
   13  0.000  0.003  0.000  0.010  0.000  0.000  0.000  0.000  0.000  0.015
   14  0.000  0.003  0.000  0.010  0.000  0.000  0.000  0.000  0.000  0.015
   15  0.000  0.003  0.000  0.010  0.000  0.000  0.000  0.000  0.000  0.015
   16  0.000  0.003  0.000  0.010  0.000  0.000  0.000  0.000  0.000  0.015
   17  0.000  0.003  0.000  0.010  0.000  0.000  0.000  0.000  0.000  0.015
   18  0.000  0.003  0.000  0.010  0.000  0.000  0.000  0.000  0.000  0.015
   19  0.000  0.003  0.000  0.010  0.000  0.000  0.000  0.000  0.000  0.015
   20  0.000  0.003  0.000  0.010  0.000  0.000  0.000  0.000  0.000  0.015
   21  0.000  0.003  0.000  0.010  0.000  0.000  0.000  0.000  0.000  0.015
   22  0.000  0.003  0.000  0.010  0.000  0.000  0.000  0.000  0.000  0.015
   23  0.000  0.003  0.000  0.010  0.000  0.000  0.000  0.000  0.000  0.015
   24  0.000  0.003  0.000  0.010  0.000  0.000  0.000  0.000  0.000  0.015
   25  0.000  0.003  0.000  0.010  0.000  0.000  0.000  0.000  0.000  0.015
   26  0.000  0.003  0.000  0.010  0.000  0.000  0.000  0.000  0.000  0.015
   27  0.000  0.003  0.000  0.010  0.000  0.000  0.000  0.000  0.000  0.015
   28  0.000  0.003  0.000  0.010  0.000  0.000  0.000  0.000  0.000  0.015
   29  0.000  0.003  0.000  0.010  0.000  0.000  0.000  0.000  0.000  0.015
   30  0.000  0.003  0.000  0.010  0.000  0.000  0.000  0.000  0.000  0.015
   31  0.000  0.003  0.000  0.010  0.000  0.000  0.000  0.000  0.000  0.015
   32  0.000  0.003  0.000  0.010  0.000  0.000  0.000  0.000  0.000  0.015
   33  0.000  0.003  0.000  0.010  0.000  0.000  0.000  0.000  0.000  0.015
   34  0.000  0.003  0.000  0.010  0.000  0.000  0.000  0.000  0.000  0.015
   35  0.000  0.003  0.000  0.010  0.000  0.000  0.000  0.000  0.000  0.015
   36  0.000  0.003  0.000  0.010  0.000  0.000  0.000  0.000  0.000  0.015
tot    0.119  0.088  0.008  0.265  0.048  0.001  0.030  0.002  0.016  0.577
 
band    26 # energy   -6.48632763 # occ.  1.00000000
 
ion      s     py     pz     px    dxy    dyz    dz2    dxz  x2-y2    tot
    1  0.012  0.000  0.000  0.000  0.000  0.000  0.013  0.000  0.000  0.025
    2  0.012  0.000  0.000  0.000  0.000  0.000  0.013  0.000  0.000  0.025
    3  0.012  0.000  0.000  0.000  0.000  0.000  0.013  0.000  0.000  0.025
    4  0.012  0.000  0.000  0.000  0.000  0.000  0.013  0.000  0.000  0.025
    5  0.012  0.000  0.000  0.000  0.000  0.000  0.013  0.000  0.000  0.025
    6  0.012  0.000  0.000  0.000  0.000  0.000  0.013  0.000  0.000  0.025
    7  0.012  0.000  0.000  0.000  0.000  0.000  0.013  0.000  0.000  0.025
    8  0.012  0.000  0.000  0.000  0.000  0.000  0.013  0.000  0.000  0.025
    9  0.012  0.000  0.000  0.000  0.000  0.000  0.013  0.000  0.000  0.025
   10  0.012  0.000  0.000  0.000  0.000  0.000  0.013  0.000  0.000  0.025
   11  0.012  0.000  0.000  0.000  0.000  0.000  0.013  0.000  0.000  0.025
   12  0.012  0.000  0.000  0.000  0.000  0.000  0.013  0.000  0.000  0.025
   13  0.001  0.000  0.011  0.000  0.000  0.000  0.000  0.000  0.000  0.013
   14  0.001  0.000  0.011  0.000  0.000  0.000  0.000  0.000  0.000  0.013
   15  0.001  0.000  0.011  0.000  0.000  0.000  0.000  0.000  0.000  0.013
   16  0.001  0.000  0.011  0.000  0.000  0.000  0.000  0.000  0.000  0.013
   17  0.001  0.000  0.011  0.000  0.000  0.000  0.000  0.000  0.000  0.013
   18  0.001  0.000  0.011  0.000  0.000  0.000  0.000  0.000  0.000  0.013
   19  0.001  0.000  0.011  0.000  0.000  0.000  0.000  0.000  0.000  0.013
   20  0.001  0.000  0.011  0.000  0.000  0.000  0.000  0.000  0.000  0.013
   21  0.001  0.000  0.011  0.000  0.000  0.000  0.000  0.000  0.000  0.013
   22  0.001  0.000  0.011  0.000  0.000  0.000  0.000  0.000  0.000  0.013
   23  0.001  0.000  0.011  0.000  0.000  0.000  0.000  0.000  0.000  0.013
   24  0.001  0.000  0.011  0.000  0.000  0.000  0.000  0.000  0.000  0.013
   25  0.001  0.000  0.011  0.000  0.000  0.000  0.000  0.000  0.000  0.013
   26  0.001  0.000  0.011  0.000  0.000  0.000  0.000  0.000  0.000  0.013
   27  0.001  0.000  0.011  0.000  0.000  0.000  0.000  0.000  0.000  0.013
   28  0.001  0.000  0.011  0.000  0.000  0.000  0.000  0.000  0.000  0.013
   29  0.001  0.000  0.011  0.000  0.000  0.000  0.000  0.000  0.000  0.013
   30  0.001  0.000  0.011  0.000  0.000  0.000  0.000  0.000  0.000  0.013
   31  0.001  0.000  0.011  0.000  0.000  0.000  0.000  0.000  0.000  0.013
   32  0.001  0.000  0.011  0.000  0.000  0.000  0.000  0.000  0.000  0.013
   33  0.001  0.000  0.011  0.000  0.000  0.000  0.000  0.000  0.000  0.013
   34  0.001  0.000  0.011  0.000  0.000  0.000  0.000  0.000  0.000  0.013
   35  0.001  0.000  0.011  0.000  0.000  0.000  0.000  0.000  0.000  0.013
   36  0.001  0.000  0.011  0.000  0.000  0.000  0.000  0.000  0.000  0.013
tot    0.174  0.000  0.270  0.000  0.000  0.000  0.167  0.000  0.000  0.612
 
band    27 # energy   -6.22168325 # occ.  1.00000000
 
ion      s     py     pz     px    dxy    dyz    dz2    dxz  x2-y2    tot
    1  0.001  0.001  0.000  0.000  0.009  0.000  0.002  0.000  0.011  0.023
    2  0.006  0.003  0.000  0.001  0.007  0.000  0.001  0.000  0.001  0.019
    3  0.001  0.001  0.000  0.000  0.002  0.000  0.002  0.000  0.018  0.023
    4  0.003  0.000  0.000  0.000  0.002  0.000  0.006  0.000  0.001  0.012
    5  0.006  0.003  0.000  0.001  0.007  0.000  0.001  0.000  0.001  0.019
    6  0.006  0.003  0.000  0.001  0.000  0.000  0.001  0.000  0.008  0.019
    7  0.022  0.000  0.000  0.000  0.012  0.000  0.006  0.000  0.004  0.044
    8  0.006  0.003  0.000  0.001  0.000  0.000  0.001  0.000  0.008  0.019
    9  0.022  0.000  0.000  0.000  0.012  0.000  0.006  0.000  0.004  0.044
   10  0.001  0.001  0.000  0.000  0.002  0.000  0.002  0.000  0.018  0.023
   11  0.003  0.000  0.000  0.000  0.002  0.000  0.006  0.000  0.001  0.012
   12  0.001  0.001  0.000  0.000  0.009  0.000  0.002  0.000  0.011  0.023
   13  0.002  0.000  0.001  0.001  0.000  0.000  0.000  0.000  0.000  0.005
   14  0.000  0.019  0.000  0.003  0.000  0.000  0.000  0.000  0.000  0.022
   15  0.000  0.019  0.000  0.003  0.000  0.000  0.000  0.000  0.000  0.022
   16  0.000  0.006  0.001  0.001  0.000  0.000  0.000  0.000  0.000  0.008
   17  0.000  0.006  0.001  0.001  0.000  0.000  0.000  0.000  0.000  0.008
   18  0.000  0.013  0.000  0.008  0.000  0.000  0.000  0.000  0.000  0.023
   19  0.000  0.013  0.000  0.008  0.000  0.000  0.000  0.000  0.000  0.023
   20  0.002  0.000  0.001  0.001  0.000  0.000  0.000  0.000  0.000  0.005
   21  0.000  0.019  0.000  0.003  0.000  0.000  0.000  0.000  0.000  0.022
   22  0.000  0.019  0.000  0.003  0.000  0.000  0.000  0.000  0.000  0.022
   23  0.000  0.004  0.004  0.011  0.000  0.000  0.000  0.000  0.000  0.019
   24  0.000  0.004  0.004  0.011  0.000  0.000  0.000  0.000  0.000  0.019
   25  0.000  0.000  0.001  0.007  0.000  0.000  0.000  0.000  0.000  0.008
   26  0.000  0.000  0.001  0.007  0.000  0.000  0.000  0.000  0.000  0.008
   27  0.002  0.000  0.001  0.001  0.000  0.000  0.000  0.000  0.000  0.005
   28  0.002  0.000  0.001  0.001  0.000  0.000  0.000  0.000  0.000  0.005
   29  0.000  0.006  0.001  0.001  0.000  0.000  0.000  0.000  0.000  0.008
   30  0.000  0.013  0.000  0.008  0.000  0.000  0.000  0.000  0.000  0.023
   31  0.000  0.013  0.000  0.008  0.000  0.000  0.000  0.000  0.000  0.023
   32  0.000  0.006  0.001  0.001  0.000  0.000  0.000  0.000  0.000  0.008
   33  0.000  0.000  0.001  0.007  0.000  0.000  0.000  0.000  0.000  0.008
   34  0.000  0.000  0.001  0.007  0.000  0.000  0.000  0.000  0.000  0.008
   35  0.000  0.004  0.004  0.011  0.000  0.000  0.000  0.000  0.000  0.019
   36  0.000  0.004  0.004  0.011  0.000  0.000  0.000  0.000  0.000  0.019
tot    0.086  0.185  0.030  0.129  0.065  0.002  0.040  0.001  0.083  0.623
 
band    28 # energy   -6.22157960 # occ.  1.00000000
 
ion      s     py     pz     px    dxy    dyz    dz2    dxz  x2-y2    tot
    1  0.002  0.000  0.000  0.000  0.000  0.000  0.005  0.000  0.009  0.016
    2  0.017  0.001  0.000  0.000  0.006  0.000  0.004  0.000  0.007  0.035
    3  0.002  0.000  0.000  0.000  0.007  0.000  0.005  0.000  0.002  0.016
    4  0.000  0.001  0.000  0.000  0.006  0.000  0.000  0.000  0.019  0.026
    5  0.017  0.001  0.000  0.000  0.006  0.000  0.004  0.000  0.007  0.035
    6  0.017  0.001  0.000  0.000  0.013  0.000  0.004  0.000  0.000  0.035
    7  0.000  0.004  0.000  0.001  0.001  0.000  0.000  0.000  0.004  0.011
    8  0.017  0.001  0.000  0.000  0.013  0.000  0.004  0.000  0.000  0.035
    9  0.000  0.004  0.000  0.001  0.001  0.000  0.000  0.000  0.004  0.011
   10  0.002  0.000  0.000  0.000  0.007  0.000  0.005  0.000  0.002  0.016
   11  0.000  0.001  0.000  0.000  0.006  0.000  0.000  0.000  0.019  0.026
   12  0.002  0.000  0.000  0.000  0.000  0.000  0.005  0.000  0.009  0.016
   13  0.000  0.021  0.000  0.007  0.000  0.000  0.000  0.000  0.000  0.028
   14  0.001  0.003  0.001  0.006  0.000  0.000  0.000  0.000  0.000  0.011
   15  0.001  0.003  0.001  0.006  0.000  0.000  0.000  0.000  0.000  0.011
   16  0.000  0.001  0.003  0.012  0.000  0.000  0.000  0.000  0.000  0.016
   17  0.000  0.001  0.003  0.012  0.000  0.000  0.000  0.000  0.000  0.016
   18  0.001  0.008  0.001  0.000  0.000  0.000  0.000  0.000  0.000  0.011
   19  0.001  0.008  0.001  0.000  0.000  0.000  0.000  0.000  0.000  0.011
   20  0.000  0.021  0.000  0.007  0.000  0.000  0.000  0.000  0.000  0.028
   21  0.001  0.003  0.001  0.006  0.000  0.000  0.000  0.000  0.000  0.011
   22  0.001  0.003  0.001  0.006  0.000  0.000  0.000  0.000  0.000  0.011
   23  0.000  0.003  0.000  0.001  0.000  0.000  0.000  0.000  0.000  0.005
   24  0.000  0.003  0.000  0.001  0.000  0.000  0.000  0.000  0.000  0.005
   25  0.000  0.007  0.003  0.006  0.000  0.000  0.000  0.000  0.000  0.016
   26  0.000  0.007  0.003  0.006  0.000  0.000  0.000  0.000  0.000  0.016
   27  0.000  0.021  0.000  0.007  0.000  0.000  0.000  0.000  0.000  0.028
   28  0.000  0.021  0.000  0.007  0.000  0.000  0.000  0.000  0.000  0.028
   29  0.000  0.001  0.003  0.012  0.000  0.000  0.000  0.000  0.000  0.016
   30  0.001  0.008  0.001  0.000  0.000  0.000  0.000  0.000  0.000  0.011
   31  0.001  0.008  0.001  0.000  0.000  0.000  0.000  0.000  0.000  0.011
   32  0.000  0.001  0.003  0.012  0.000  0.000  0.000  0.000  0.000  0.016
   33  0.000  0.007  0.003  0.006  0.000  0.000  0.000  0.000  0.000  0.016
   34  0.000  0.007  0.003  0.006  0.000  0.000  0.000  0.000  0.000  0.016
   35  0.000  0.003  0.000  0.001  0.000  0.000  0.000  0.000  0.000  0.005
   36  0.000  0.003  0.000  0.001  0.000  0.000  0.000  0.000  0.000  0.005
tot    0.086  0.185  0.030  0.130  0.065  0.002  0.040  0.001  0.083  0.623
 
band    29 # energy   -6.22145192 # occ.  1.00000000
 
ion      s     py     pz     px    dxy    dyz    dz2    dxz  x2-y2    tot
    1  0.005  0.003  0.000  0.001  0.000  0.000  0.001  0.000  0.008  0.019
    2  0.001  0.001  0.000  0.000  0.002  0.000  0.002  0.000  0.018  0.023
    3  0.006  0.003  0.000  0.001  0.007  0.000  0.002  0.000  0.001  0.019
    4  0.022  0.000  0.000  0.000  0.012  0.000  0.006  0.000  0.004  0.044
    5  0.001  0.001  0.000  0.000  0.002  0.000  0.002  0.000  0.018  0.023
    6  0.001  0.001  0.000  0.000  0.009  0.000  0.002  0.000  0.011  0.023
    7  0.003  0.000  0.000  0.000  0.002  0.000  0.006  0.000  0.001  0.012
    8  0.001  0.001  0.000  0.000  0.009  0.000  0.002  0.000  0.011  0.023
    9  0.003  0.000  0.000  0.000  0.002  0.000  0.006  0.000  0.001  0.012
   10  0.006  0.003  0.000  0.001  0.007  0.000  0.002  0.000  0.001  0.019
   11  0.022  0.000  0.000  0.000  0.012  0.000  0.006  0.000  0.004  0.044
   12  0.005  0.003  0.000  0.001  0.000  0.000  0.001  0.000  0.008  0.019
   13  0.000  0.004  0.004  0.011  0.000  0.000  0.000  0.000  0.000  0.019
   14  0.000  0.000  0.001  0.007  0.000  0.000  0.000  0.000  0.000  0.008
   15  0.000  0.000  0.001  0.007  0.000  0.000  0.000  0.000  0.000  0.008
   16  0.000  0.013  0.000  0.008  0.000  0.000  0.000  0.000  0.000  0.022
   17  0.000  0.013  0.000  0.008  0.000  0.000  0.000  0.000  0.000  0.022
   18  0.000  0.006  0.001  0.001  0.000  0.000  0.000  0.000  0.000  0.008
   19  0.000  0.006  0.001  0.001  0.000  0.000  0.000  0.000  0.000  0.008
   20  0.000  0.004  0.004  0.011  0.000  0.000  0.000  0.000  0.000  0.019
   21  0.000  0.000  0.001  0.007  0.000  0.000  0.000  0.000  0.000  0.008
   22  0.000  0.000  0.001  0.007  0.000  0.000  0.000  0.000  0.000  0.008
   23  0.002  0.000  0.001  0.001  0.000  0.000  0.000  0.000  0.000  0.005
   24  0.002  0.000  0.001  0.001  0.000  0.000  0.000  0.000  0.000  0.005
   25  0.000  0.019  0.000  0.003  0.000  0.000  0.000  0.000  0.000  0.023
   26  0.000  0.019  0.000  0.003  0.000  0.000  0.000  0.000  0.000  0.023
   27  0.000  0.004  0.004  0.011  0.000  0.000  0.000  0.000  0.000  0.019
   28  0.000  0.004  0.004  0.011  0.000  0.000  0.000  0.000  0.000  0.019
   29  0.000  0.013  0.000  0.008  0.000  0.000  0.000  0.000  0.000  0.022
   30  0.000  0.006  0.001  0.001  0.000  0.000  0.000  0.000  0.000  0.008
   31  0.000  0.006  0.001  0.001  0.000  0.000  0.000  0.000  0.000  0.008
   32  0.000  0.013  0.000  0.008  0.000  0.000  0.000  0.000  0.000  0.022
   33  0.000  0.019  0.000  0.003  0.000  0.000  0.000  0.000  0.000  0.023
   34  0.000  0.019  0.000  0.003  0.000  0.000  0.000  0.000  0.000  0.023
   35  0.002  0.000  0.001  0.001  0.000  0.000  0.000  0.000  0.000  0.005
   36  0.002  0.000  0.001  0.001  0.000  0.000  0.000  0.000  0.000  0.005
tot    0.086  0.186  0.030  0.129  0.065  0.002  0.040  0.001  0.083  0.623
 
band    30 # energy   -6.22134978 # occ.  1.00000000
 
ion      s     py     pz     px    dxy    dyz    dz2    dxz  x2-y2    tot
    1  0.017  0.001  0.000  0.000  0.013  0.000  0.004  0.000  0.000  0.035
    2  0.002  0.000  0.000  0.000  0.007  0.000  0.005  0.000  0.002  0.016
    3  0.017  0.001  0.000  0.000  0.006  0.000  0.004  0.000  0.007  0.035
    4  0.000  0.004  0.000  0.001  0.001  0.000  0.000  0.000  0.004  0.011
    5  0.002  0.000  0.000  0.000  0.007  0.000  0.005  0.000  0.002  0.016
    6  0.002  0.000  0.000  0.000  0.000  0.000  0.005  0.000  0.009  0.016
    7  0.000  0.001  0.000  0.000  0.006  0.000  0.000  0.000  0.019  0.026
    8  0.002  0.000  0.000  0.000  0.000  0.000  0.005  0.000  0.009  0.016
    9  0.000  0.001  0.000  0.000  0.006  0.000  0.000  0.000  0.019  0.026
   10  0.017  0.001  0.000  0.000  0.006  0.000  0.004  0.000  0.007  0.035
   11  0.000  0.004  0.000  0.001  0.001  0.000  0.000  0.000  0.004  0.011
   12  0.017  0.001  0.000  0.000  0.013  0.000  0.004  0.000  0.000  0.035
   13  0.000  0.003  0.000  0.001  0.000  0.000  0.000  0.000  0.000  0.005
   14  0.000  0.007  0.003  0.006  0.000  0.000  0.000  0.000  0.000  0.016
   15  0.000  0.007  0.003  0.006  0.000  0.000  0.000  0.000  0.000  0.016
   16  0.001  0.008  0.001  0.000  0.000  0.000  0.000  0.000  0.000  0.011
   17  0.001  0.008  0.001  0.000  0.000  0.000  0.000  0.000  0.000  0.011
   18  0.000  0.001  0.003  0.012  0.000  0.000  0.000  0.000  0.000  0.016
   19  0.000  0.001  0.003  0.012  0.000  0.000  0.000  0.000  0.000  0.016
   20  0.000  0.003  0.000  0.001  0.000  0.000  0.000  0.000  0.000  0.005
   21  0.000  0.007  0.003  0.006  0.000  0.000  0.000  0.000  0.000  0.016
   22  0.000  0.007  0.003  0.006  0.000  0.000  0.000  0.000  0.000  0.016
   23  0.000  0.021  0.000  0.007  0.000  0.000  0.000  0.000  0.000  0.028
   24  0.000  0.021  0.000  0.007  0.000  0.000  0.000  0.000  0.000  0.028
   25  0.001  0.003  0.001  0.006  0.000  0.000  0.000  0.000  0.000  0.011
   26  0.001  0.003  0.001  0.006  0.000  0.000  0.000  0.000  0.000  0.011
   27  0.000  0.003  0.000  0.001  0.000  0.000  0.000  0.000  0.000  0.005
   28  0.000  0.003  0.000  0.001  0.000  0.000  0.000  0.000  0.000  0.005
   29  0.001  0.008  0.001  0.000  0.000  0.000  0.000  0.000  0.000  0.011
   30  0.000  0.001  0.003  0.012  0.000  0.000  0.000  0.000  0.000  0.016
   31  0.000  0.001  0.003  0.012  0.000  0.000  0.000  0.000  0.000  0.016
   32  0.001  0.008  0.001  0.000  0.000  0.000  0.000  0.000  0.000  0.011
   33  0.001  0.003  0.001  0.006  0.000  0.000  0.000  0.000  0.000  0.011
   34  0.001  0.003  0.001  0.006  0.000  0.000  0.000  0.000  0.000  0.011
   35  0.000  0.021  0.000  0.007  0.000  0.000  0.000  0.000  0.000  0.028
   36  0.000  0.021  0.000  0.007  0.000  0.000  0.000  0.000  0.000  0.028
tot    0.086  0.185  0.030  0.130  0.065  0.002  0.040  0.001  0.083  0.623
 
band    31 # energy   -6.11207195 # occ.  1.00000000
 
ion      s     py     pz     px    dxy    dyz    dz2    dxz  x2-y2    tot
    1  0.000  0.000  0.000  0.000  0.000  0.007  0.000  0.022  0.000  0.029
    2  0.000  0.000  0.000  0.000  0.000  0.029  0.000  0.000  0.000  0.029
    3  0.000  0.000  0.000  0.000  0.000  0.029  0.000  0.000  0.000  0.029
    4  0.000  0.000  0.000  0.000  0.000  0.007  0.000  0.022  0.000  0.029
    5  0.000  0.000  0.000  0.000  0.000  0.029  0.000  0.000  0.000  0.029
    6  0.000  0.000  0.000  0.000  0.000  0.007  0.000  0.022  0.000  0.029
    7  0.000  0.000  0.000  0.000  0.000  0.007  0.000  0.022  0.000  0.029
    8  0.000  0.000  0.000  0.000  0.000  0.007  0.000  0.022  0.000  0.029
    9  0.000  0.000  0.000  0.000  0.000  0.007  0.000  0.022  0.000  0.029
   10  0.000  0.000  0.000  0.000  0.000  0.029  0.000  0.000  0.000  0.029
   11  0.000  0.000  0.000  0.000  0.000  0.007  0.000  0.022  0.000  0.029
   12  0.000  0.000  0.000  0.000  0.000  0.007  0.000  0.022  0.000  0.029
   13  0.000  0.003  0.000  0.010  0.000  0.000  0.000  0.000  0.000  0.014
   14  0.000  0.014  0.000  0.000  0.000  0.000  0.000  0.000  0.000  0.014
   15  0.000  0.014  0.000  0.000  0.000  0.000  0.000  0.000  0.000  0.014
   16  0.000  0.003  0.000  0.010  0.000  0.000  0.000  0.000  0.000  0.014
   17  0.000  0.003  0.000  0.010  0.000  0.000  0.000  0.000  0.000  0.014
   18  0.000  0.003  0.000  0.010  0.000  0.000  0.000  0.000  0.000  0.014
   19  0.000  0.003  0.000  0.010  0.000  0.000  0.000  0.000  0.000  0.014
   20  0.000  0.003  0.000  0.010  0.000  0.000  0.000  0.000  0.000  0.014
   21  0.000  0.014  0.000  0.000  0.000  0.000  0.000  0.000  0.000  0.014
   22  0.000  0.014  0.000  0.000  0.000  0.000  0.000  0.000  0.000  0.014
   23  0.000  0.003  0.000  0.010  0.000  0.000  0.000  0.000  0.000  0.014
   24  0.000  0.003  0.000  0.010  0.000  0.000  0.000  0.000  0.000  0.014
   25  0.000  0.014  0.000  0.000  0.000  0.000  0.000  0.000  0.000  0.014
   26  0.000  0.014  0.000  0.000  0.000  0.000  0.000  0.000  0.000  0.014
   27  0.000  0.003  0.000  0.010  0.000  0.000  0.000  0.000  0.000  0.014
   28  0.000  0.003  0.000  0.010  0.000  0.000  0.000  0.000  0.000  0.014
   29  0.000  0.003  0.000  0.010  0.000  0.000  0.000  0.000  0.000  0.014
   30  0.000  0.003  0.000  0.010  0.000  0.000  0.000  0.000  0.000  0.014
   31  0.000  0.003  0.000  0.010  0.000  0.000  0.000  0.000  0.000  0.014
   32  0.000  0.003  0.000  0.010  0.000  0.000  0.000  0.000  0.000  0.014
   33  0.000  0.014  0.000  0.000  0.000  0.000  0.000  0.000  0.000  0.014
   34  0.000  0.014  0.000  0.000  0.000  0.000  0.000  0.000  0.000  0.014
   35  0.000  0.003  0.000  0.010  0.000  0.000  0.000  0.000  0.000  0.014
   36  0.000  0.003  0.000  0.010  0.000  0.000  0.000  0.000  0.000  0.014
tot    0.000  0.163  0.000  0.163  0.001  0.175  0.000  0.176  0.001  0.679
 
band    32 # energy   -6.11204327 # occ.  1.00000000
 
ion      s     py     pz     px    dxy    dyz    dz2    dxz  x2-y2    tot
    1  0.000  0.000  0.000  0.000  0.000  0.022  0.000  0.007  0.000  0.029
    2  0.000  0.000  0.000  0.000  0.000  0.000  0.000  0.029  0.000  0.029
    3  0.000  0.000  0.000  0.000  0.000  0.000  0.000  0.029  0.000  0.029
    4  0.000  0.000  0.000  0.000  0.000  0.021  0.000  0.007  0.000  0.029
    5  0.000  0.000  0.000  0.000  0.000  0.000  0.000  0.029  0.000  0.029
    6  0.000  0.000  0.000  0.000  0.000  0.022  0.000  0.007  0.000  0.029
    7  0.000  0.000  0.000  0.000  0.000  0.021  0.000  0.007  0.000  0.029
    8  0.000  0.000  0.000  0.000  0.000  0.022  0.000  0.007  0.000  0.029
    9  0.000  0.000  0.000  0.000  0.000  0.021  0.000  0.007  0.000  0.029
   10  0.000  0.000  0.000  0.000  0.000  0.000  0.000  0.029  0.000  0.029
   11  0.000  0.000  0.000  0.000  0.000  0.021  0.000  0.007  0.000  0.029
   12  0.000  0.000  0.000  0.000  0.000  0.022  0.000  0.007  0.000  0.029
   13  0.000  0.010  0.000  0.003  0.000  0.000  0.000  0.000  0.000  0.014
   14  0.000  0.000  0.000  0.014  0.000  0.000  0.000  0.000  0.000  0.014
   15  0.000  0.000  0.000  0.014  0.000  0.000  0.000  0.000  0.000  0.014
   16  0.000  0.010  0.000  0.003  0.000  0.000  0.000  0.000  0.000  0.014
   17  0.000  0.010  0.000  0.003  0.000  0.000  0.000  0.000  0.000  0.014
   18  0.000  0.010  0.000  0.003  0.000  0.000  0.000  0.000  0.000  0.014
   19  0.000  0.010  0.000  0.003  0.000  0.000  0.000  0.000  0.000  0.014
   20  0.000  0.010  0.000  0.003  0.000  0.000  0.000  0.000  0.000  0.014
   21  0.000  0.000  0.000  0.014  0.000  0.000  0.000  0.000  0.000  0.014
   22  0.000  0.000  0.000  0.014  0.000  0.000  0.000  0.000  0.000  0.014
   23  0.000  0.010  0.000  0.003  0.000  0.000  0.000  0.000  0.000  0.014
   24  0.000  0.010  0.000  0.003  0.000  0.000  0.000  0.000  0.000  0.014
   25  0.000  0.000  0.000  0.014  0.000  0.000  0.000  0.000  0.000  0.014
   26  0.000  0.000  0.000  0.014  0.000  0.000  0.000  0.000  0.000  0.014
   27  0.000  0.010  0.000  0.003  0.000  0.000  0.000  0.000  0.000  0.014
   28  0.000  0.010  0.000  0.003  0.000  0.000  0.000  0.000  0.000  0.014
   29  0.000  0.010  0.000  0.003  0.000  0.000  0.000  0.000  0.000  0.014
   30  0.000  0.010  0.000  0.003  0.000  0.000  0.000  0.000  0.000  0.014
   31  0.000  0.010  0.000  0.003  0.000  0.000  0.000  0.000  0.000  0.014
   32  0.000  0.010  0.000  0.003  0.000  0.000  0.000  0.000  0.000  0.014
   33  0.000  0.000  0.000  0.014  0.000  0.000  0.000  0.000  0.000  0.014
   34  0.000  0.000  0.000  0.014  0.000  0.000  0.000  0.000  0.000  0.014
   35  0.000  0.010  0.000  0.003  0.000  0.000  0.000  0.000  0.000  0.014
   36  0.000  0.010  0.000  0.003  0.000  0.000  0.000  0.000  0.000  0.014
tot    0.000  0.163  0.000  0.163  0.001  0.175  0.000  0.176  0.001  0.679
 
band    33 # energy   -5.86081254 # occ.  1.00000000
 
ion      s     py     pz     px    dxy    dyz    dz2    dxz  x2-y2    tot
    1  0.000  0.000  0.005  0.000  0.000  0.003  0.000  0.008  0.000  0.015
    2  0.000  0.000  0.005  0.000  0.000  0.003  0.000  0.008  0.000  0.015
    3  0.000  0.000  0.005  0.000  0.000  0.003  0.000  0.008  0.000  0.015
    4  0.000  0.000  0.005  0.000  0.000  0.003  0.000  0.008  0.000  0.015
    5  0.000  0.000  0.005  0.000  0.000  0.003  0.000  0.008  0.000  0.015
    6  0.000  0.000  0.005  0.000  0.000  0.003  0.000  0.008  0.000  0.015
    7  0.000  0.000  0.005  0.000  0.000  0.003  0.000  0.008  0.000  0.015
    8  0.000  0.000  0.005  0.000  0.000  0.003  0.000  0.008  0.000  0.015
    9  0.000  0.000  0.005  0.000  0.000  0.003  0.000  0.008  0.000  0.015
   10  0.000  0.000  0.005  0.000  0.000  0.003  0.000  0.008  0.000  0.015
   11  0.000  0.000  0.005  0.000  0.000  0.003  0.000  0.008  0.000  0.015
   12  0.000  0.000  0.005  0.000  0.000  0.003  0.000  0.008  0.000  0.015
   13  0.001  0.004  0.001  0.011  0.000  0.000  0.000  0.000  0.000  0.017
   14  0.001  0.004  0.001  0.011  0.000  0.000  0.000  0.000  0.000  0.017
   15  0.001  0.004  0.001  0.011  0.000  0.000  0.000  0.000  0.000  0.017
   16  0.001  0.004  0.001  0.011  0.000  0.000  0.000  0.000  0.000  0.017
   17  0.001  0.004  0.001  0.011  0.000  0.000  0.000  0.000  0.000  0.017
   18  0.001  0.004  0.001  0.011  0.000  0.000  0.000  0.000  0.000  0.017
   19  0.001  0.004  0.001  0.011  0.000  0.000  0.000  0.000  0.000  0.017
   20  0.001  0.004  0.001  0.011  0.000  0.000  0.000  0.000  0.000  0.017
   21  0.001  0.004  0.001  0.011  0.000  0.000  0.000  0.000  0.000  0.017
   22  0.001  0.004  0.001  0.011  0.000  0.000  0.000  0.000  0.000  0.017
   23  0.001  0.004  0.001  0.011  0.000  0.000  0.000  0.000  0.000  0.017
   24  0.001  0.004  0.001  0.011  0.000  0.000  0.000  0.000  0.000  0.017
   25  0.001  0.004  0.001  0.011  0.000  0.000  0.000  0.000  0.000  0.017
   26  0.001  0.004  0.001  0.011  0.000  0.000  0.000  0.000  0.000  0.017
   27  0.001  0.004  0.001  0.011  0.000  0.000  0.000  0.000  0.000  0.017
   28  0.001  0.004  0.001  0.011  0.000  0.000  0.000  0.000  0.000  0.017
   29  0.001  0.004  0.001  0.011  0.000  0.000  0.000  0.000  0.000  0.017
   30  0.001  0.004  0.001  0.011  0.000  0.000  0.000  0.000  0.000  0.017
   31  0.001  0.004  0.001  0.011  0.000  0.000  0.000  0.000  0.000  0.017
   32  0.001  0.004  0.001  0.011  0.000  0.000  0.000  0.000  0.000  0.017
   33  0.001  0.004  0.001  0.011  0.000  0.000  0.000  0.000  0.000  0.017
   34  0.001  0.004  0.001  0.011  0.000  0.000  0.000  0.000  0.000  0.017
   35  0.001  0.004  0.001  0.011  0.000  0.000  0.000  0.000  0.000  0.017
   36  0.001  0.004  0.001  0.011  0.000  0.000  0.000  0.000  0.000  0.017
tot    0.013  0.092  0.073  0.276  0.000  0.032  0.000  0.097  0.000  0.583
 
band    34 # energy   -5.76123701 # occ.  1.00000000
 
ion      s     py     pz     px    dxy    dyz    dz2    dxz  x2-y2    tot
    1  0.007  0.000  0.000  0.001  0.005  0.000  0.018  0.000  0.002  0.033
    2  0.001  0.001  0.000  0.002  0.013  0.000  0.000  0.000  0.004  0.021
    3  0.007  0.000  0.000  0.001  0.005  0.000  0.018  0.000  0.002  0.033
    4  0.007  0.000  0.000  0.001  0.005  0.000  0.018  0.000  0.002  0.033
    5  0.001  0.001  0.000  0.002  0.013  0.000  0.000  0.000  0.004  0.021
    6  0.001  0.001  0.000  0.002  0.013  0.000  0.000  0.000  0.004  0.021
    7  0.001  0.001  0.000  0.002  0.013  0.000  0.000  0.000  0.004  0.021
    8  0.001  0.001  0.000  0.002  0.013  0.000  0.000  0.000  0.004  0.021
    9  0.001  0.001  0.000  0.002  0.013  0.000  0.000  0.000  0.004  0.021
   10  0.007  0.000  0.000  0.001  0.005  0.000  0.018  0.000  0.002  0.033
   11  0.007  0.000  0.000  0.001  0.005  0.000  0.018  0.000  0.002  0.033
   12  0.007  0.000  0.000  0.001  0.005  0.000  0.018  0.000  0.002  0.033
   13  0.001  0.001  0.004  0.003  0.000  0.000  0.000  0.000  0.000  0.009
   14  0.001  0.001  0.004  0.003  0.000  0.000  0.000  0.000  0.000  0.009
   15  0.001  0.001  0.004  0.003  0.000  0.000  0.000  0.000  0.000  0.009
   16  0.000  0.000  0.017  0.000  0.000  0.000  0.001  0.000  0.000  0.018
   17  0.000  0.000  0.017  0.000  0.000  0.000  0.001  0.000  0.000  0.018
   18  0.001  0.001  0.004  0.003  0.000  0.000  0.000  0.000  0.000  0.009
   19  0.001  0.001  0.004  0.003  0.000  0.000  0.000  0.000  0.000  0.009
   20  0.001  0.001  0.004  0.003  0.000  0.000  0.000  0.000  0.000  0.009
   21  0.001  0.001  0.004  0.003  0.000  0.000  0.000  0.000  0.000  0.009
   22  0.001  0.001  0.004  0.003  0.000  0.000  0.000  0.000  0.000  0.009
   23  0.000  0.000  0.017  0.000  0.000  0.000  0.001  0.000  0.000  0.018
   24  0.000  0.000  0.017  0.000  0.000  0.000  0.001  0.000  0.000  0.018
   25  0.000  0.000  0.017  0.000  0.000  0.000  0.001  0.000  0.000  0.018
   26  0.000  0.000  0.017  0.000  0.000  0.000  0.001  0.000  0.000  0.018
   27  0.001  0.001  0.004  0.003  0.000  0.000  0.000  0.000  0.000  0.009
   28  0.001  0.001  0.004  0.003  0.000  0.000  0.000  0.000  0.000  0.009
   29  0.000  0.000  0.017  0.000  0.000  0.000  0.001  0.000  0.000  0.018
   30  0.001  0.001  0.004  0.003  0.000  0.000  0.000  0.000  0.000  0.009
   31  0.001  0.001  0.004  0.003  0.000  0.000  0.000  0.000  0.000  0.009
   32  0.000  0.000  0.017  0.000  0.000  0.000  0.001  0.000  0.000  0.018
   33  0.000  0.000  0.017  0.000  0.000  0.000  0.001  0.000  0.000  0.018
   34  0.000  0.000  0.017  0.000  0.000  0.000  0.001  0.000  0.000  0.018
   35  0.000  0.000  0.017  0.000  0.000  0.000  0.001  0.000  0.000  0.018
   36  0.000  0.000  0.017  0.000  0.000  0.000  0.001  0.000  0.000  0.018
tot    0.060  0.019  0.257  0.056  0.107  0.000  0.119  0.000  0.036  0.653
 
band    35 # energy   -5.76077658 # occ.  1.00000000
 
ion      s     py     pz     px    dxy    dyz    dz2    dxz  x2-y2    tot
    1  0.001  0.001  0.000  0.002  0.013  0.000  0.000  0.000  0.004  0.021
    2  0.007  0.000  0.000  0.001  0.005  0.000  0.018  0.000  0.002  0.033
    3  0.001  0.001  0.000  0.002  0.013  0.000  0.000  0.000  0.004  0.021
    4  0.001  0.001  0.000  0.002  0.013  0.000  0.000  0.000  0.004  0.021
    5  0.007  0.000  0.000  0.001  0.005  0.000  0.018  0.000  0.002  0.033
    6  0.007  0.000  0.000  0.001  0.005  0.000  0.018  0.000  0.002  0.033
    7  0.007  0.000  0.000  0.001  0.005  0.000  0.018  0.000  0.002  0.033
    8  0.007  0.000  0.000  0.001  0.005  0.000  0.018  0.000  0.002  0.033
    9  0.007  0.000  0.000  0.001  0.005  0.000  0.018  0.000  0.002  0.033
   10  0.001  0.001  0.000  0.002  0.013  0.000  0.000  0.000  0.004  0.021
   11  0.001  0.001  0.000  0.002  0.013  0.000  0.000  0.000  0.004  0.021
   12  0.001  0.001  0.000  0.002  0.013  0.000  0.000  0.000  0.004  0.021
   13  0.000  0.000  0.017  0.000  0.000  0.000  0.001  0.000  0.000  0.018
   14  0.000  0.000  0.017  0.000  0.000  0.000  0.001  0.000  0.000  0.018
   15  0.000  0.000  0.017  0.000  0.000  0.000  0.001  0.000  0.000  0.018
   16  0.001  0.001  0.004  0.003  0.000  0.000  0.000  0.000  0.000  0.009
   17  0.001  0.001  0.004  0.003  0.000  0.000  0.000  0.000  0.000  0.009
   18  0.000  0.000  0.017  0.000  0.000  0.000  0.001  0.000  0.000  0.018
   19  0.000  0.000  0.017  0.000  0.000  0.000  0.001  0.000  0.000  0.018
   20  0.000  0.000  0.017  0.000  0.000  0.000  0.001  0.000  0.000  0.018
   21  0.000  0.000  0.017  0.000  0.000  0.000  0.001  0.000  0.000  0.018
   22  0.000  0.000  0.017  0.000  0.000  0.000  0.001  0.000  0.000  0.018
   23  0.001  0.001  0.004  0.003  0.000  0.000  0.000  0.000  0.000  0.009
   24  0.001  0.001  0.004  0.003  0.000  0.000  0.000  0.000  0.000  0.009
   25  0.001  0.001  0.004  0.003  0.000  0.000  0.000  0.000  0.000  0.009
   26  0.001  0.001  0.004  0.003  0.000  0.000  0.000  0.000  0.000  0.009
   27  0.000  0.000  0.017  0.000  0.000  0.000  0.001  0.000  0.000  0.018
   28  0.000  0.000  0.017  0.000  0.000  0.000  0.001  0.000  0.000  0.018
   29  0.001  0.001  0.004  0.003  0.000  0.000  0.000  0.000  0.000  0.009
   30  0.000  0.000  0.017  0.000  0.000  0.000  0.001  0.000  0.000  0.018
   31  0.000  0.000  0.017  0.000  0.000  0.000  0.001  0.000  0.000  0.018
   32  0.001  0.001  0.004  0.003  0.000  0.000  0.000  0.000  0.000  0.009
   33  0.001  0.001  0.004  0.003  0.000  0.000  0.000  0.000  0.000  0.009
   34  0.001  0.001  0.004  0.003  0.000  0.000  0.000  0.000  0.000  0.009
   35  0.001  0.001  0.004  0.003  0.000  0.000  0.000  0.000  0.000  0.009
   36  0.001  0.001  0.004  0.003  0.000  0.000  0.000  0.000  0.000  0.009
tot    0.060  0.019  0.257  0.056  0.107  0.000  0.119  0.000  0.036  0.654
 
band    36 # energy   -5.66842584 # occ.  1.00000000
 
ion      s     py     pz     px    dxy    dyz    dz2    dxz  x2-y2    tot
    1  0.000  0.001  0.000  0.002  0.009  0.000  0.004  0.000  0.015  0.032
    2  0.000  0.003  0.000  0.000  0.003  0.000  0.004  0.000  0.020  0.031
    3  0.000  0.003  0.000  0.000  0.003  0.000  0.004  0.000  0.020  0.032
    4  0.001  0.001  0.000  0.002  0.001  0.000  0.017  0.000  0.000  0.022
    5  0.000  0.003  0.000  0.000  0.003  0.000  0.004  0.000  0.020  0.031
    6  0.000  0.001  0.000  0.002  0.009  0.000  0.004  0.000  0.015  0.031
    7  0.001  0.001  0.000  0.002  0.001  0.000  0.017  0.000  0.000  0.021
    8  0.000  0.001  0.000  0.002  0.009  0.000  0.004  0.000  0.015  0.031
    9  0.001  0.001  0.000  0.002  0.001  0.000  0.017  0.000  0.000  0.021
   10  0.000  0.003  0.000  0.000  0.003  0.000  0.004  0.000  0.020  0.032
   11  0.001  0.001  0.000  0.002  0.001  0.000  0.017  0.000  0.000  0.022
   12  0.000  0.001  0.000  0.002  0.009  0.000  0.004  0.000  0.015  0.032
   13  0.000  0.000  0.016  0.000  0.000  0.000  0.001  0.000  0.000  0.017
   14  0.000  0.005  0.004  0.002  0.000  0.000  0.000  0.000  0.000  0.012
   15  0.000  0.005  0.004  0.002  0.000  0.000  0.000  0.000  0.000  0.012
   16  0.000  0.006  0.004  0.002  0.000  0.000  0.000  0.000  0.000  0.012
   17  0.000  0.006  0.004  0.002  0.000  0.000  0.000  0.000  0.000  0.012
   18  0.000  0.005  0.004  0.002  0.000  0.000  0.000  0.000  0.000  0.012
   19  0.000  0.005  0.004  0.002  0.000  0.000  0.000  0.000  0.000  0.012
   20  0.000  0.000  0.016  0.000  0.000  0.000  0.001  0.000  0.000  0.017
   21  0.000  0.005  0.004  0.002  0.000  0.000  0.000  0.000  0.000  0.012
   22  0.000  0.005  0.004  0.002  0.000  0.000  0.000  0.000  0.000  0.012
   23  0.000  0.000  0.016  0.000  0.000  0.000  0.001  0.000  0.000  0.017
   24  0.000  0.000  0.016  0.000  0.000  0.000  0.001  0.000  0.000  0.017
   25  0.000  0.005  0.004  0.002  0.000  0.000  0.000  0.000  0.000  0.012
   26  0.000  0.005  0.004  0.002  0.000  0.000  0.000  0.000  0.000  0.012
   27  0.000  0.000  0.016  0.000  0.000  0.000  0.001  0.000  0.000  0.017
   28  0.000  0.000  0.016  0.000  0.000  0.000  0.001  0.000  0.000  0.017
   29  0.000  0.006  0.004  0.002  0.000  0.000  0.000  0.000  0.000  0.012
   30  0.000  0.005  0.004  0.002  0.000  0.000  0.000  0.000  0.000  0.012
   31  0.000  0.005  0.004  0.002  0.000  0.000  0.000  0.000  0.000  0.012
   32  0.000  0.006  0.004  0.002  0.000  0.000  0.000  0.000  0.000  0.012
   33  0.000  0.005  0.004  0.002  0.000  0.000  0.000  0.000  0.000  0.012
   34  0.000  0.005  0.004  0.002  0.000  0.000  0.000  0.000  0.000  0.012
   35  0.000  0.000  0.016  0.000  0.000  0.000  0.001  0.000  0.000  0.017
   36  0.000  0.000  0.016  0.000  0.000  0.000  0.001  0.000  0.000  0.017
tot    0.005  0.108  0.198  0.046  0.054  0.000  0.110  0.000  0.143  0.664
 
band    37 # energy   -5.66829691 # occ.  1.00000000
 
ion      s     py     pz     px    dxy    dyz    dz2    dxz  x2-y2    tot
    1  0.000  0.002  0.000  0.000  0.000  0.000  0.013  0.000  0.009  0.025
    2  0.001  0.000  0.000  0.003  0.006  0.000  0.012  0.000  0.003  0.025
    3  0.000  0.000  0.000  0.003  0.006  0.000  0.013  0.000  0.003  0.025
    4  0.000  0.003  0.000  0.001  0.008  0.000  0.000  0.000  0.023  0.035
    5  0.001  0.000  0.000  0.003  0.006  0.000  0.012  0.000  0.003  0.025
    6  0.001  0.002  0.000  0.000  0.000  0.000  0.012  0.000  0.009  0.025
    7  0.000  0.003  0.000  0.001  0.008  0.000  0.000  0.000  0.023  0.035
    8  0.001  0.002  0.000  0.000  0.000  0.000  0.012  0.000  0.009  0.025
    9  0.000  0.003  0.000  0.001  0.008  0.000  0.000  0.000  0.023  0.035
   10  0.000  0.000  0.000  0.003  0.006  0.000  0.013  0.000  0.003  0.025
   11  0.000  0.003  0.000  0.001  0.008  0.000  0.000  0.000  0.023  0.035
   12  0.000  0.002  0.000  0.000  0.000  0.000  0.013  0.000  0.009  0.025
   13  0.000  0.007  0.000  0.002  0.000  0.000  0.000  0.000  0.000  0.010
   14  0.000  0.002  0.012  0.001  0.000  0.000  0.001  0.000  0.000  0.015
   15  0.000  0.002  0.012  0.001  0.000  0.000  0.001  0.000  0.000  0.015
   16  0.000  0.002  0.012  0.001  0.000  0.000  0.001  0.000  0.000  0.016
   17  0.000  0.002  0.012  0.001  0.000  0.000  0.001  0.000  0.000  0.016
   18  0.000  0.002  0.012  0.001  0.000  0.000  0.001  0.000  0.000  0.015
   19  0.000  0.002  0.012  0.001  0.000  0.000  0.001  0.000  0.000  0.015
   20  0.000  0.007  0.000  0.002  0.000  0.000  0.000  0.000  0.000  0.010
   21  0.000  0.002  0.012  0.001  0.000  0.000  0.001  0.000  0.000  0.015
   22  0.000  0.002  0.012  0.001  0.000  0.000  0.001  0.000  0.000  0.015
   23  0.000  0.007  0.000  0.002  0.000  0.000  0.000  0.000  0.000  0.010
   24  0.000  0.007  0.000  0.002  0.000  0.000  0.000  0.000  0.000  0.010
   25  0.000  0.002  0.012  0.000  0.000  0.000  0.001  0.000  0.000  0.016
   26  0.000  0.002  0.012  0.000  0.000  0.000  0.001  0.000  0.000  0.016
   27  0.000  0.007  0.000  0.002  0.000  0.000  0.000  0.000  0.000  0.010
   28  0.000  0.007  0.000  0.002  0.000  0.000  0.000  0.000  0.000  0.010
   29  0.000  0.002  0.012  0.001  0.000  0.000  0.001  0.000  0.000  0.016
   30  0.000  0.002  0.012  0.001  0.000  0.000  0.001  0.000  0.000  0.015
   31  0.000  0.002  0.012  0.001  0.000  0.000  0.001  0.000  0.000  0.015
   32  0.000  0.002  0.012  0.001  0.000  0.000  0.001  0.000  0.000  0.016
   33  0.000  0.002  0.012  0.000  0.000  0.000  0.001  0.000  0.000  0.016
   34  0.000  0.002  0.012  0.000  0.000  0.000  0.001  0.000  0.000  0.016
   35  0.000  0.007  0.000  0.002  0.000  0.000  0.000  0.000  0.000  0.010
   36  0.000  0.007  0.000  0.002  0.000  0.000  0.000  0.000  0.000  0.010
tot    0.005  0.108  0.197  0.046  0.054  0.000  0.110  0.000  0.143  0.664
 
band    38 # energy   -5.61325722 # occ.  1.00000000
 
ion      s     py     pz     px    dxy    dyz    dz2    dxz  x2-y2    tot
    1  0.006  0.000  0.000  0.000  0.000  0.000  0.005  0.000  0.000  0.011
    2  0.006  0.000  0.000  0.000  0.000  0.000  0.005  0.000  0.000  0.011
    3  0.006  0.000  0.000  0.000  0.000  0.000  0.005  0.000  0.000  0.011
    4  0.024  0.000  0.000  0.000  0.000  0.000  0.021  0.000  0.000  0.044
    5  0.006  0.000  0.000  0.000  0.000  0.000  0.005  0.000  0.000  0.011
    6  0.006  0.000  0.000  0.000  0.000  0.000  0.005  0.000  0.000  0.011
    7  0.023  0.000  0.000  0.000  0.000  0.000  0.021  0.000  0.000  0.045
    8  0.006  0.000  0.000  0.000  0.000  0.000  0.005  0.000  0.000  0.011
    9  0.023  0.000  0.000  0.000  0.000  0.000  0.021  0.000  0.000  0.045
   10  0.006  0.000  0.000  0.000  0.000  0.000  0.005  0.000  0.000  0.011
   11  0.024  0.000  0.000  0.000  0.000  0.000  0.021  0.000  0.000  0.044
   12  0.006  0.000  0.000  0.000  0.000  0.000  0.005  0.000  0.000  0.011
   13  0.000  0.004  0.000  0.011  0.000  0.000  0.000  0.000  0.000  0.015
   14  0.000  0.004  0.000  0.012  0.000  0.000  0.000  0.000  0.000  0.016
   15  0.000  0.004  0.000  0.012  0.000  0.000  0.000  0.000  0.000  0.016
   16  0.000  0.015  0.000  0.000  0.000  0.000  0.000  0.000  0.000  0.016
   17  0.000  0.015  0.000  0.000  0.000  0.000  0.000  0.000  0.000  0.016
   18  0.000  0.016  0.000  0.000  0.000  0.000  0.000  0.000  0.000  0.016
   19  0.000  0.016  0.000  0.000  0.000  0.000  0.000  0.000  0.000  0.016
   20  0.000  0.004  0.000  0.011  0.000  0.000  0.000  0.000  0.000  0.015
   21  0.000  0.004  0.000  0.012  0.000  0.000  0.000  0.000  0.000  0.016
   22  0.000  0.004  0.000  0.012  0.000  0.000  0.000  0.000  0.000  0.016
   23  0.000  0.004  0.000  0.011  0.000  0.000  0.000  0.000  0.000  0.015
   24  0.000  0.004  0.000  0.011  0.000  0.000  0.000  0.000  0.000  0.015
   25  0.000  0.004  0.000  0.011  0.000  0.000  0.000  0.000  0.000  0.016
   26  0.000  0.004  0.000  0.011  0.000  0.000  0.000  0.000  0.000  0.016
   27  0.000  0.004  0.000  0.011  0.000  0.000  0.000  0.000  0.000  0.015
   28  0.000  0.004  0.000  0.011  0.000  0.000  0.000  0.000  0.000  0.015
   29  0.000  0.015  0.000  0.000  0.000  0.000  0.000  0.000  0.000  0.016
   30  0.000  0.016  0.000  0.000  0.000  0.000  0.000  0.000  0.000  0.016
   31  0.000  0.016  0.000  0.000  0.000  0.000  0.000  0.000  0.000  0.016
   32  0.000  0.015  0.000  0.000  0.000  0.000  0.000  0.000  0.000  0.016
   33  0.000  0.004  0.000  0.011  0.000  0.000  0.000  0.000  0.000  0.016
   34  0.000  0.004  0.000  0.011  0.000  0.000  0.000  0.000  0.000  0.016
   35  0.000  0.004  0.000  0.011  0.000  0.000  0.000  0.000  0.000  0.015
   36  0.000  0.004  0.000  0.011  0.000  0.000  0.000  0.000  0.000  0.015
tot    0.141  0.186  0.000  0.181  0.004  0.001  0.126  0.001  0.004  0.645
 
band    39 # energy   -5.61249836 # occ.  1.00000000
 
ion      s     py     pz     px    dxy    dyz    dz2    dxz  x2-y2    tot
    1  0.018  0.000  0.000  0.000  0.000  0.000  0.016  0.000  0.000  0.033
    2  0.018  0.000  0.000  0.000  0.000  0.000  0.016  0.000  0.000  0.034
    3  0.018  0.000  0.000  0.000  0.000  0.000  0.016  0.000  0.000  0.033
    4  0.000  0.000  0.000  0.000  0.000  0.000  0.000  0.000  0.000  0.000
    5  0.018  0.000  0.000  0.000  0.000  0.000  0.016  0.000  0.000  0.034
    6  0.018  0.000  0.000  0.000  0.000  0.000  0.016  0.000  0.000  0.034
    7  0.000  0.000  0.000  0.000  0.000  0.000  0.000  0.000  0.000  0.000
    8  0.018  0.000  0.000  0.000  0.000  0.000  0.016  0.000  0.000  0.034
    9  0.000  0.000  0.000  0.000  0.000  0.000  0.000  0.000  0.000  0.000
   10  0.018  0.000  0.000  0.000  0.000  0.000  0.016  0.000  0.000  0.033
   11  0.000  0.000  0.000  0.000  0.000  0.000  0.000  0.000  0.000  0.000
   12  0.018  0.000  0.000  0.000  0.000  0.000  0.016  0.000  0.000  0.033
   13  0.000  0.012  0.000  0.004  0.000  0.000  0.000  0.000  0.000  0.016
   14  0.000  0.012  0.000  0.004  0.000  0.000  0.000  0.000  0.000  0.016
   15  0.000  0.012  0.000  0.004  0.000  0.000  0.000  0.000  0.000  0.016
   16  0.000  0.000  0.000  0.015  0.000  0.000  0.000  0.000  0.000  0.015
   17  0.000  0.000  0.000  0.015  0.000  0.000  0.000  0.000  0.000  0.015
   18  0.000  0.000  0.000  0.015  0.000  0.000  0.000  0.000  0.000  0.016
   19  0.000  0.000  0.000  0.015  0.000  0.000  0.000  0.000  0.000  0.016
   20  0.000  0.012  0.000  0.004  0.000  0.000  0.000  0.000  0.000  0.016
   21  0.000  0.012  0.000  0.004  0.000  0.000  0.000  0.000  0.000  0.016
   22  0.000  0.012  0.000  0.004  0.000  0.000  0.000  0.000  0.000  0.016
   23  0.000  0.012  0.000  0.004  0.000  0.000  0.000  0.000  0.000  0.016
   24  0.000  0.012  0.000  0.004  0.000  0.000  0.000  0.000  0.000  0.016
   25  0.000  0.011  0.000  0.004  0.000  0.000  0.000  0.000  0.000  0.015
   26  0.000  0.011  0.000  0.004  0.000  0.000  0.000  0.000  0.000  0.015
   27  0.000  0.012  0.000  0.004  0.000  0.000  0.000  0.000  0.000  0.016
   28  0.000  0.012  0.000  0.004  0.000  0.000  0.000  0.000  0.000  0.016
   29  0.000  0.000  0.000  0.015  0.000  0.000  0.000  0.000  0.000  0.015
   30  0.000  0.000  0.000  0.015  0.000  0.000  0.000  0.000  0.000  0.016
   31  0.000  0.000  0.000  0.015  0.000  0.000  0.000  0.000  0.000  0.016
   32  0.000  0.000  0.000  0.015  0.000  0.000  0.000  0.000  0.000  0.015
   33  0.000  0.011  0.000  0.004  0.000  0.000  0.000  0.000  0.000  0.015
   34  0.000  0.011  0.000  0.004  0.000  0.000  0.000  0.000  0.000  0.015
   35  0.000  0.012  0.000  0.004  0.000  0.000  0.000  0.000  0.000  0.016
   36  0.000  0.012  0.000  0.004  0.000  0.000  0.000  0.000  0.000  0.016
tot    0.141  0.186  0.000  0.181  0.004  0.001  0.126  0.001  0.004  0.645
 
band    40 # energy   -5.43248638 # occ.  1.00000000
 
ion      s     py     pz     px    dxy    dyz    dz2    dxz  x2-y2    tot
    1  0.000  0.000  0.002  0.000  0.000  0.027  0.000  0.017  0.000  0.046
    2  0.000  0.000  0.001  0.000  0.000  0.002  0.000  0.002  0.000  0.005
    3  0.000  0.000  0.002  0.000  0.000  0.039  0.000  0.006  0.000  0.046
    4  0.000  0.000  0.007  0.000  0.000  0.001  0.000  0.003  0.000  0.011
    5  0.000  0.000  0.001  0.000  0.000  0.002  0.000  0.002  0.000  0.005
    6  0.000  0.000  0.001  0.000  0.000  0.003  0.000  0.000  0.000  0.005
    7  0.000  0.000  0.005  0.000  0.000  0.000  0.000  0.001  0.000  0.006
    8  0.000  0.000  0.001  0.000  0.000  0.003  0.000  0.000  0.000  0.005
    9  0.000  0.000  0.005  0.000  0.000  0.000  0.000  0.001  0.000  0.006
   10  0.000  0.000  0.002  0.000  0.000  0.039  0.000  0.006  0.000  0.046
   11  0.000  0.000  0.007  0.000  0.000  0.001  0.000  0.003  0.000  0.011
   12  0.000  0.000  0.002  0.000  0.000  0.027  0.000  0.017  0.000  0.046
   13  0.002  0.002  0.001  0.006  0.000  0.000  0.000  0.000  0.000  0.011
   14  0.001  0.002  0.000  0.006  0.000  0.000  0.000  0.000  0.000  0.009
   15  0.001  0.002  0.000  0.006  0.000  0.000  0.000  0.000  0.000  0.009
   16  0.000  0.012  0.001  0.014  0.000  0.000  0.000  0.000  0.000  0.028
   17  0.000  0.012  0.001  0.014  0.000  0.000  0.000  0.000  0.000  0.028
   18  0.001  0.008  0.000  0.000  0.000  0.000  0.000  0.000  0.000  0.009
   19  0.001  0.008  0.000  0.000  0.000  0.000  0.000  0.000  0.000  0.009
   20  0.002  0.002  0.001  0.006  0.000  0.000  0.000  0.000  0.000  0.011
   21  0.001  0.002  0.000  0.006  0.000  0.000  0.000  0.000  0.000  0.009
   22  0.001  0.002  0.000  0.006  0.000  0.000  0.000  0.000  0.000  0.009
   23  0.000  0.002  0.004  0.007  0.000  0.000  0.000  0.000  0.000  0.014
   24  0.000  0.002  0.004  0.007  0.000  0.000  0.000  0.000  0.000  0.014
   25  0.000  0.025  0.001  0.001  0.000  0.000  0.000  0.000  0.000  0.028
   26  0.000  0.025  0.001  0.001  0.000  0.000  0.000  0.000  0.000  0.028
   27  0.002  0.002  0.001  0.006  0.000  0.000  0.000  0.000  0.000  0.011
   28  0.002  0.002  0.001  0.006  0.000  0.000  0.000  0.000  0.000  0.011
   29  0.000  0.012  0.001  0.014  0.000  0.000  0.000  0.000  0.000  0.028
   30  0.001  0.008  0.000  0.000  0.000  0.000  0.000  0.000  0.000  0.009
   31  0.001  0.008  0.000  0.000  0.000  0.000  0.000  0.000  0.000  0.009
   32  0.000  0.012  0.001  0.014  0.000  0.000  0.000  0.000  0.000  0.028
   33  0.000  0.025  0.001  0.001  0.000  0.000  0.000  0.000  0.000  0.028
   34  0.000  0.025  0.001  0.001  0.000  0.000  0.000  0.000  0.000  0.028
   35  0.000  0.002  0.004  0.007  0.000  0.000  0.000  0.000  0.000  0.014
   36  0.000  0.002  0.004  0.007  0.000  0.000  0.000  0.000  0.000  0.014
tot    0.014  0.209  0.063  0.140  0.000  0.145  0.001  0.058  0.001  0.631
 
band    41 # energy   -5.43245491 # occ.  1.00000000
 
ion      s     py     pz     px    dxy    dyz    dz2    dxz  x2-y2    tot
    1  0.000  0.000  0.005  0.000  0.000  0.017  0.000  0.000  0.000  0.023
    2  0.000  0.000  0.004  0.000  0.000  0.002  0.000  0.000  0.000  0.005
    3  0.000  0.000  0.005  0.000  0.000  0.006  0.000  0.011  0.000  0.022
    4  0.000  0.000  0.000  0.000  0.000  0.044  0.000  0.015  0.000  0.058
    5  0.000  0.000  0.004  0.000  0.000  0.002  0.000  0.000  0.000  0.005
    6  0.000  0.000  0.003  0.000  0.000  0.000  0.000  0.001  0.000  0.005
    7  0.000  0.000  0.000  0.000  0.000  0.003  0.000  0.001  0.000  0.004
    8  0.000  0.000  0.003  0.000  0.000  0.000  0.000  0.001  0.000  0.005
    9  0.000  0.000  0.000  0.000  0.000  0.003  0.000  0.001  0.000  0.004
   10  0.000  0.000  0.005  0.000  0.000  0.006  0.000  0.011  0.000  0.022
   11  0.000  0.000  0.000  0.000  0.000  0.044  0.000  0.015  0.000  0.058
   12  0.000  0.000  0.005  0.000  0.000  0.017  0.000  0.000  0.000  0.023
   13  0.000  0.006  0.000  0.002  0.000  0.000  0.000  0.000  0.000  0.009
   14  0.002  0.006  0.000  0.002  0.000  0.000  0.000  0.000  0.000  0.010
   15  0.002  0.006  0.000  0.002  0.000  0.000  0.000  0.000  0.000  0.010
   16  0.000  0.014  0.003  0.001  0.000  0.000  0.000  0.000  0.000  0.019
   17  0.000  0.014  0.003  0.001  0.000  0.000  0.000  0.000  0.000  0.018
   18  0.002  0.000  0.000  0.008  0.000  0.000  0.000  0.000  0.000  0.010
   19  0.002  0.000  0.000  0.008  0.000  0.000  0.000  0.000  0.000  0.010
   20  0.000  0.006  0.000  0.002  0.000  0.000  0.000  0.000  0.000  0.009
   21  0.002  0.006  0.000  0.002  0.000  0.000  0.000  0.000  0.000  0.010
   22  0.002  0.006  0.000  0.002  0.000  0.000  0.000  0.000  0.000  0.010
   23  0.000  0.024  0.000  0.008  0.000  0.000  0.000  0.000  0.000  0.032
   24  0.000  0.024  0.000  0.008  0.000  0.000  0.000  0.000  0.000  0.032
   25  0.000  0.001  0.003  0.014  0.000  0.000  0.000  0.000  0.000  0.019
   26  0.000  0.001  0.003  0.014  0.000  0.000  0.000  0.000  0.000  0.019
   27  0.000  0.006  0.000  0.002  0.000  0.000  0.000  0.000  0.000  0.009
   28  0.000  0.006  0.000  0.002  0.000  0.000  0.000  0.000  0.000  0.009
   29  0.000  0.014  0.003  0.001  0.000  0.000  0.000  0.000  0.000  0.019
   30  0.002  0.000  0.000  0.008  0.000  0.000  0.000  0.000  0.000  0.010
   31  0.002  0.000  0.000  0.008  0.000  0.000  0.000  0.000  0.000  0.010
   32  0.000  0.014  0.003  0.001  0.000  0.000  0.000  0.000  0.000  0.018
   33  0.000  0.001  0.003  0.014  0.000  0.000  0.000  0.000  0.000  0.019
   34  0.000  0.001  0.003  0.014  0.000  0.000  0.000  0.000  0.000  0.019
   35  0.000  0.024  0.000  0.008  0.000  0.000  0.000  0.000  0.000  0.032
   36  0.000  0.024  0.000  0.008  0.000  0.000  0.000  0.000  0.000  0.032
tot    0.014  0.209  0.063  0.140  0.000  0.145  0.001  0.058  0.001  0.631
 
band    42 # energy   -5.43195734 # occ.  1.00000000
 
ion      s     py     pz     px    dxy    dyz    dz2    dxz  x2-y2    tot
    1  0.000  0.000  0.001  0.000  0.000  0.003  0.000  0.000  0.000  0.005
    2  0.000  0.000  0.002  0.000  0.000  0.038  0.000  0.006  0.000  0.046
    3  0.000  0.000  0.001  0.000  0.000  0.002  0.000  0.002  0.000  0.005
    4  0.000  0.000  0.005  0.000  0.000  0.000  0.000  0.001  0.000  0.006
    5  0.000  0.000  0.002  0.000  0.000  0.038  0.000  0.006  0.000  0.046
    6  0.000  0.000  0.002  0.000  0.000  0.028  0.000  0.017  0.000  0.046
    7  0.000  0.000  0.007  0.000  0.000  0.001  0.000  0.003  0.000  0.011
    8  0.000  0.000  0.002  0.000  0.000  0.028  0.000  0.017  0.000  0.046
    9  0.000  0.000  0.007  0.000  0.000  0.001  0.000  0.003  0.000  0.011
   10  0.000  0.000  0.001  0.000  0.000  0.002  0.000  0.002  0.000  0.005
   11  0.000  0.000  0.005  0.000  0.000  0.000  0.000  0.001  0.000  0.006
   12  0.000  0.000  0.001  0.000  0.000  0.003  0.000  0.000  0.000  0.005
   13  0.000  0.002  0.004  0.007  0.000  0.000  0.000  0.000  0.000  0.014
   14  0.000  0.025  0.001  0.001  0.000  0.000  0.000  0.000  0.000  0.028
   15  0.000  0.025  0.001  0.001  0.000  0.000  0.000  0.000  0.000  0.028
   16  0.001  0.008  0.000  0.000  0.000  0.000  0.000  0.000  0.000  0.009
   17  0.001  0.008  0.000  0.000  0.000  0.000  0.000  0.000  0.000  0.009
   18  0.000  0.012  0.001  0.014  0.000  0.000  0.000  0.000  0.000  0.028
   19  0.000  0.012  0.001  0.014  0.000  0.000  0.000  0.000  0.000  0.028
   20  0.000  0.002  0.004  0.007  0.000  0.000  0.000  0.000  0.000  0.014
   21  0.000  0.025  0.001  0.001  0.000  0.000  0.000  0.000  0.000  0.028
   22  0.000  0.025  0.001  0.001  0.000  0.000  0.000  0.000  0.000  0.028
   23  0.002  0.002  0.001  0.006  0.000  0.000  0.000  0.000  0.000  0.011
   24  0.002  0.002  0.001  0.006  0.000  0.000  0.000  0.000  0.000  0.011
   25  0.001  0.002  0.000  0.006  0.000  0.000  0.000  0.000  0.000  0.009
   26  0.001  0.002  0.000  0.006  0.000  0.000  0.000  0.000  0.000  0.009
   27  0.000  0.002  0.004  0.007  0.000  0.000  0.000  0.000  0.000  0.014
   28  0.000  0.002  0.004  0.007  0.000  0.000  0.000  0.000  0.000  0.014
   29  0.001  0.008  0.000  0.000  0.000  0.000  0.000  0.000  0.000  0.009
   30  0.000  0.012  0.001  0.014  0.000  0.000  0.000  0.000  0.000  0.028
   31  0.000  0.012  0.001  0.014  0.000  0.000  0.000  0.000  0.000  0.028
   32  0.001  0.008  0.000  0.000  0.000  0.000  0.000  0.000  0.000  0.009
   33  0.001  0.002  0.000  0.006  0.000  0.000  0.000  0.000  0.000  0.009
   34  0.001  0.002  0.000  0.006  0.000  0.000  0.000  0.000  0.000  0.009
   35  0.002  0.002  0.001  0.006  0.000  0.000  0.000  0.000  0.000  0.011
   36  0.002  0.002  0.001  0.006  0.000  0.000  0.000  0.000  0.000  0.011
tot    0.014  0.209  0.063  0.140  0.000  0.145  0.001  0.058  0.001  0.631
 
band    43 # energy   -5.43192397 # occ.  1.00000000
 
ion      s     py     pz     px    dxy    dyz    dz2    dxz  x2-y2    tot
    1  0.000  0.000  0.004  0.000  0.000  0.000  0.000  0.001  0.000  0.005
    2  0.000  0.000  0.005  0.000  0.000  0.006  0.000  0.011  0.000  0.023
    3  0.000  0.000  0.003  0.000  0.000  0.002  0.000  0.000  0.000  0.005
    4  0.000  0.000  0.000  0.000  0.000  0.003  0.000  0.001  0.000  0.004
    5  0.000  0.000  0.005  0.000  0.000  0.006  0.000  0.011  0.000  0.023
    6  0.000  0.000  0.005  0.000  0.000  0.017  0.000  0.000  0.000  0.022
    7  0.000  0.000  0.000  0.000  0.000  0.044  0.000  0.014  0.000  0.058
    8  0.000  0.000  0.005  0.000  0.000  0.017  0.000  0.000  0.000  0.022
    9  0.000  0.000  0.000  0.000  0.000  0.044  0.000  0.014  0.000  0.058
   10  0.000  0.000  0.003  0.000  0.000  0.002  0.000  0.000  0.000  0.005
   11  0.000  0.000  0.000  0.000  0.000  0.003  0.000  0.001  0.000  0.004
   12  0.000  0.000  0.004  0.000  0.000  0.000  0.000  0.001  0.000  0.005
   13  0.000  0.024  0.000  0.008  0.000  0.000  0.000  0.000  0.000  0.032
   14  0.000  0.001  0.003  0.014  0.000  0.000  0.000  0.000  0.000  0.018
   15  0.000  0.001  0.003  0.014  0.000  0.000  0.000  0.000  0.000  0.018
   16  0.002  0.000  0.000  0.008  0.000  0.000  0.000  0.000  0.000  0.010
   17  0.002  0.000  0.000  0.008  0.000  0.000  0.000  0.000  0.000  0.010
   18  0.000  0.015  0.003  0.001  0.000  0.000  0.000  0.000  0.000  0.019
   19  0.000  0.015  0.003  0.001  0.000  0.000  0.000  0.000  0.000  0.019
   20  0.000  0.024  0.000  0.008  0.000  0.000  0.000  0.000  0.000  0.032
   21  0.000  0.001  0.003  0.014  0.000  0.000  0.000  0.000  0.000  0.018
   22  0.000  0.001  0.003  0.014  0.000  0.000  0.000  0.000  0.000  0.018
   23  0.000  0.006  0.000  0.002  0.000  0.000  0.000  0.000  0.000  0.009
   24  0.000  0.006  0.000  0.002  0.000  0.000  0.000  0.000  0.000  0.009
   25  0.002  0.006  0.000  0.002  0.000  0.000  0.000  0.000  0.000  0.010
   26  0.002  0.006  0.000  0.002  0.000  0.000  0.000  0.000  0.000  0.010
   27  0.000  0.024  0.000  0.008  0.000  0.000  0.000  0.000  0.000  0.032
   28  0.000  0.024  0.000  0.008  0.000  0.000  0.000  0.000  0.000  0.032
   29  0.002  0.000  0.000  0.008  0.000  0.000  0.000  0.000  0.000  0.010
   30  0.000  0.015  0.003  0.001  0.000  0.000  0.000  0.000  0.000  0.019
   31  0.000  0.015  0.003  0.001  0.000  0.000  0.000  0.000  0.000  0.019
   32  0.002  0.000  0.000  0.008  0.000  0.000  0.000  0.000  0.000  0.010
   33  0.002  0.006  0.000  0.002  0.000  0.000  0.000  0.000  0.000  0.010
   34  0.002  0.006  0.000  0.002  0.000  0.000  0.000  0.000  0.000  0.010
   35  0.000  0.006  0.000  0.002  0.000  0.000  0.000  0.000  0.000  0.009
   36  0.000  0.006  0.000  0.002  0.000  0.000  0.000  0.000  0.000  0.009
tot    0.014  0.209  0.063  0.140  0.000  0.145  0.001  0.058  0.001  0.631
 
band    44 # energy   -5.07997837 # occ.  1.00000000
 
ion      s     py     pz     px    dxy    dyz    dz2    dxz  x2-y2    tot
    1  0.000  0.002  0.000  0.006  0.004  0.000  0.000  0.000  0.001  0.013
    2  0.000  0.008  0.000  0.000  0.000  0.000  0.000  0.000  0.005  0.013
    3  0.000  0.008  0.000  0.000  0.000  0.000  0.000  0.000  0.005  0.013
    4  0.000  0.002  0.000  0.006  0.004  0.000  0.000  0.000  0.001  0.013
    5  0.000  0.008  0.000  0.000  0.000  0.000  0.000  0.000  0.005  0.013
    6  0.000  0.002  0.000  0.006  0.004  0.000  0.000  0.000  0.001  0.013
    7  0.000  0.002  0.000  0.006  0.004  0.000  0.000  0.000  0.001  0.013
    8  0.000  0.002  0.000  0.006  0.004  0.000  0.000  0.000  0.001  0.013
    9  0.000  0.002  0.000  0.006  0.004  0.000  0.000  0.000  0.001  0.013
   10  0.000  0.008  0.000  0.000  0.000  0.000  0.000  0.000  0.005  0.013
   11  0.000  0.002  0.000  0.006  0.004  0.000  0.000  0.000  0.001  0.013
   12  0.000  0.002  0.000  0.006  0.004  0.000  0.000  0.000  0.001  0.013
   13  0.000  0.004  0.000  0.011  0.000  0.000  0.000  0.000  0.000  0.015
   14  0.000  0.015  0.000  0.000  0.000  0.000  0.000  0.000  0.000  0.015
   15  0.000  0.015  0.000  0.000  0.000  0.000  0.000  0.000  0.000  0.015
   16  0.000  0.004  0.000  0.011  0.000  0.000  0.000  0.000  0.000  0.015
   17  0.000  0.003  0.000  0.011  0.000  0.000  0.000  0.000  0.000  0.015
   18  0.000  0.004  0.000  0.011  0.000  0.000  0.000  0.000  0.000  0.015
   19  0.000  0.004  0.000  0.011  0.000  0.000  0.000  0.000  0.000  0.015
   20  0.000  0.004  0.000  0.011  0.000  0.000  0.000  0.000  0.000  0.015
   21  0.000  0.015  0.000  0.000  0.000  0.000  0.000  0.000  0.000  0.015
   22  0.000  0.015  0.000  0.000  0.000  0.000  0.000  0.000  0.000  0.015
   23  0.000  0.004  0.000  0.011  0.000  0.000  0.000  0.000  0.000  0.015
   24  0.000  0.004  0.000  0.011  0.000  0.000  0.000  0.000  0.000  0.015
   25  0.000  0.014  0.000  0.000  0.000  0.000  0.000  0.000  0.000  0.015
   26  0.000  0.014  0.000  0.000  0.000  0.000  0.000  0.000  0.000  0.015
   27  0.000  0.004  0.000  0.011  0.000  0.000  0.000  0.000  0.000  0.015
   28  0.000  0.004  0.000  0.011  0.000  0.000  0.000  0.000  0.000  0.015
   29  0.000  0.004  0.000  0.011  0.000  0.000  0.000  0.000  0.000  0.015
   30  0.000  0.004  0.000  0.011  0.000  0.000  0.000  0.000  0.000  0.015
   31  0.000  0.004  0.000  0.011  0.000  0.000  0.000  0.000  0.000  0.015
   32  0.000  0.003  0.000  0.011  0.000  0.000  0.000  0.000  0.000  0.015
   33  0.000  0.014  0.000  0.000  0.000  0.000  0.000  0.000  0.000  0.015
   34  0.000  0.014  0.000  0.000  0.000  0.000  0.000  0.000  0.000  0.015
   35  0.000  0.004  0.000  0.011  0.000  0.000  0.000  0.000  0.000  0.015
   36  0.000  0.004  0.000  0.011  0.000  0.000  0.000  0.000  0.000  0.015
tot    0.000  0.222  0.000  0.227  0.034  0.001  0.000  0.001  0.036  0.522
 
band    45 # energy   -5.07993934 # occ.  1.00000000
 
ion      s     py     pz     px    dxy    dyz    dz2    dxz  x2-y2    tot
    1  0.000  0.006  0.000  0.002  0.001  0.000  0.000  0.000  0.004  0.013
    2  0.000  0.000  0.000  0.008  0.005  0.000  0.000  0.000  0.000  0.013
    3  0.000  0.000  0.000  0.008  0.005  0.000  0.000  0.000  0.000  0.013
    4  0.000  0.006  0.000  0.002  0.001  0.000  0.000  0.000  0.004  0.013
    5  0.000  0.000  0.000  0.008  0.005  0.000  0.000  0.000  0.000  0.013
    6  0.000  0.006  0.000  0.002  0.001  0.000  0.000  0.000  0.004  0.013
    7  0.000  0.006  0.000  0.002  0.001  0.000  0.000  0.000  0.004  0.013
    8  0.000  0.006  0.000  0.002  0.001  0.000  0.000  0.000  0.004  0.013
    9  0.000  0.006  0.000  0.002  0.001  0.000  0.000  0.000  0.004  0.013
   10  0.000  0.000  0.000  0.008  0.005  0.000  0.000  0.000  0.000  0.013
   11  0.000  0.006  0.000  0.002  0.001  0.000  0.000  0.000  0.004  0.013
   12  0.000  0.006  0.000  0.002  0.001  0.000  0.000  0.000  0.004  0.013
   13  0.000  0.011  0.000  0.004  0.000  0.000  0.000  0.000  0.000  0.015
   14  0.000  0.000  0.000  0.015  0.000  0.000  0.000  0.000  0.000  0.015
   15  0.000  0.000  0.000  0.015  0.000  0.000  0.000  0.000  0.000  0.015
   16  0.000  0.011  0.000  0.004  0.000  0.000  0.000  0.000  0.000  0.015
   17  0.000  0.011  0.000  0.004  0.000  0.000  0.000  0.000  0.000  0.015
   18  0.000  0.011  0.000  0.004  0.000  0.000  0.000  0.000  0.000  0.015
   19  0.000  0.011  0.000  0.004  0.000  0.000  0.000  0.000  0.000  0.015
   20  0.000  0.011  0.000  0.004  0.000  0.000  0.000  0.000  0.000  0.015
   21  0.000  0.000  0.000  0.015  0.000  0.000  0.000  0.000  0.000  0.015
   22  0.000  0.000  0.000  0.015  0.000  0.000  0.000  0.000  0.000  0.015
   23  0.000  0.011  0.000  0.004  0.000  0.000  0.000  0.000  0.000  0.015
   24  0.000  0.011  0.000  0.004  0.000  0.000  0.000  0.000  0.000  0.015
   25  0.000  0.000  0.000  0.015  0.000  0.000  0.000  0.000  0.000  0.015
   26  0.000  0.000  0.000  0.015  0.000  0.000  0.000  0.000  0.000  0.015
   27  0.000  0.011  0.000  0.004  0.000  0.000  0.000  0.000  0.000  0.015
   28  0.000  0.011  0.000  0.004  0.000  0.000  0.000  0.000  0.000  0.015
   29  0.000  0.011  0.000  0.004  0.000  0.000  0.000  0.000  0.000  0.015
   30  0.000  0.011  0.000  0.004  0.000  0.000  0.000  0.000  0.000  0.015
   31  0.000  0.011  0.000  0.004  0.000  0.000  0.000  0.000  0.000  0.015
   32  0.000  0.011  0.000  0.004  0.000  0.000  0.000  0.000  0.000  0.015
   33  0.000  0.000  0.000  0.015  0.000  0.000  0.000  0.000  0.000  0.015
   34  0.000  0.000  0.000  0.015  0.000  0.000  0.000  0.000  0.000  0.015
   35  0.000  0.011  0.000  0.004  0.000  0.000  0.000  0.000  0.000  0.015
   36  0.000  0.011  0.000  0.004  0.000  0.000  0.000  0.000  0.000  0.015
tot    0.000  0.222  0.000  0.227  0.034  0.001  0.000  0.001  0.036  0.522
 
band    46 # energy   -4.92902345 # occ.  1.00000000
 
ion      s     py     pz     px    dxy    dyz    dz2    dxz  x2-y2    tot
    1  0.000  0.001  0.000  0.002  0.015  0.000  0.007  0.000  0.005  0.030
    2  0.000  0.001  0.000  0.002  0.015  0.000  0.007  0.000  0.005  0.030
    3  0.000  0.001  0.000  0.002  0.015  0.000  0.007  0.000  0.005  0.030
    4  0.000  0.001  0.000  0.002  0.015  0.000  0.007  0.000  0.005  0.030
    5  0.000  0.001  0.000  0.002  0.015  0.000  0.007  0.000  0.005  0.030
    6  0.000  0.001  0.000  0.002  0.015  0.000  0.007  0.000  0.005  0.030
    7  0.000  0.001  0.000  0.002  0.015  0.000  0.007  0.000  0.005  0.030
    8  0.000  0.001  0.000  0.002  0.015  0.000  0.007  0.000  0.005  0.030
    9  0.000  0.001  0.000  0.002  0.015  0.000  0.007  0.000  0.005  0.030
   10  0.000  0.001  0.000  0.002  0.015  0.000  0.007  0.000  0.005  0.030
   11  0.000  0.001  0.000  0.002  0.015  0.000  0.007  0.000  0.005  0.030
   12  0.000  0.001  0.000  0.002  0.015  0.000  0.007  0.000  0.005  0.030
   13  0.001  0.000  0.012  0.001  0.000  0.000  0.000  0.000  0.000  0.014
   14  0.001  0.000  0.012  0.001  0.000  0.000  0.000  0.000  0.000  0.014
   15  0.001  0.000  0.012  0.001  0.000  0.000  0.000  0.000  0.000  0.014
   16  0.001  0.000  0.012  0.001  0.000  0.000  0.000  0.000  0.000  0.014
   17  0.001  0.000  0.012  0.001  0.000  0.000  0.000  0.000  0.000  0.014
   18  0.001  0.000  0.012  0.001  0.000  0.000  0.000  0.000  0.000  0.014
   19  0.001  0.000  0.012  0.001  0.000  0.000  0.000  0.000  0.000  0.014
   20  0.001  0.000  0.012  0.001  0.000  0.000  0.000  0.000  0.000  0.014
   21  0.001  0.000  0.012  0.001  0.000  0.000  0.000  0.000  0.000  0.014
   22  0.001  0.000  0.012  0.001  0.000  0.000  0.000  0.000  0.000  0.014
   23  0.001  0.000  0.012  0.001  0.000  0.000  0.000  0.000  0.000  0.014
   24  0.001  0.000  0.012  0.001  0.000  0.000  0.000  0.000  0.000  0.014
   25  0.001  0.000  0.012  0.001  0.000  0.000  0.000  0.000  0.000  0.014
   26  0.001  0.000  0.012  0.001  0.000  0.000  0.000  0.000  0.000  0.014
   27  0.001  0.000  0.012  0.001  0.000  0.000  0.000  0.000  0.000  0.014
   28  0.001  0.000  0.012  0.001  0.000  0.000  0.000  0.000  0.000  0.014
   29  0.001  0.000  0.012  0.001  0.000  0.000  0.000  0.000  0.000  0.014
   30  0.001  0.000  0.012  0.001  0.000  0.000  0.000  0.000  0.000  0.014
   31  0.001  0.000  0.012  0.001  0.000  0.000  0.000  0.000  0.000  0.014
   32  0.001  0.000  0.012  0.001  0.000  0.000  0.000  0.000  0.000  0.014
   33  0.001  0.000  0.012  0.001  0.000  0.000  0.000  0.000  0.000  0.014
   34  0.001  0.000  0.012  0.001  0.000  0.000  0.000  0.000  0.000  0.014
   35  0.001  0.000  0.012  0.001  0.000  0.000  0.000  0.000  0.000  0.014
   36  0.001  0.000  0.012  0.001  0.000  0.000  0.000  0.000  0.000  0.014
tot    0.031  0.015  0.280  0.046  0.179  0.000  0.096  0.000  0.060  0.707
 
band    47 # energy   -4.88701526 # occ.  1.00000000
 
ion      s     py     pz     px    dxy    dyz    dz2    dxz  x2-y2    tot
    1  0.000  0.000  0.000  0.002  0.000  0.000  0.006  0.000  0.005  0.013
    2  0.004  0.003  0.000  0.004  0.005  0.000  0.001  0.000  0.011  0.028
    3  0.000  0.002  0.000  0.000  0.004  0.000  0.006  0.000  0.001  0.013
    4  0.000  0.001  0.000  0.003  0.006  0.000  0.023  0.000  0.002  0.035
    5  0.004  0.003  0.000  0.004  0.005  0.000  0.001  0.000  0.011  0.028
    6  0.004  0.006  0.000  0.000  0.003  0.000  0.001  0.000  0.013  0.028
    7  0.017  0.001  0.000  0.002  0.000  0.000  0.003  0.000  0.000  0.023
    8  0.004  0.006  0.000  0.000  0.003  0.000  0.001  0.000  0.013  0.028
    9  0.017  0.001  0.000  0.002  0.000  0.000  0.003  0.000  0.000  0.023
   10  0.000  0.002  0.000  0.000  0.004  0.000  0.006  0.000  0.001  0.013
   11  0.000  0.001  0.000  0.003  0.006  0.000  0.023  0.000  0.002  0.035
   12  0.000  0.000  0.000  0.002  0.000  0.000  0.006  0.000  0.005  0.013
   13  0.006  0.000  0.047  0.001  0.000  0.000  0.001  0.000  0.000  0.056
   14  0.002  0.001  0.012  0.002  0.000  0.000  0.000  0.000  0.000  0.016
   15  0.002  0.001  0.012  0.002  0.000  0.000  0.000  0.000  0.000  0.016
   16  0.000  0.002  0.000  0.001  0.000  0.000  0.000  0.000  0.000  0.003
   17  0.000  0.002  0.000  0.001  0.000  0.000  0.000  0.000  0.000  0.003
   18  0.002  0.003  0.012  0.000  0.000  0.000  0.000  0.000  0.000  0.017
   19  0.002  0.003  0.012  0.000  0.000  0.000  0.000  0.000  0.000  0.017
   20  0.006  0.000  0.047  0.001  0.000  0.000  0.001  0.000  0.000  0.056
   21  0.002  0.001  0.012  0.002  0.000  0.000  0.000  0.000  0.000  0.016
   22  0.002  0.001  0.012  0.002  0.000  0.000  0.000  0.000  0.000  0.016
   23  0.001  0.000  0.001  0.000  0.000  0.000  0.000  0.000  0.000  0.002
   24  0.001  0.000  0.001  0.000  0.000  0.000  0.000  0.000  0.000  0.002
   25  0.000  0.002  0.000  0.000  0.000  0.000  0.000  0.000  0.000  0.003
   26  0.000  0.002  0.000  0.000  0.000  0.000  0.000  0.000  0.000  0.003
   27  0.006  0.000  0.047  0.001  0.000  0.000  0.001  0.000  0.000  0.056
   28  0.006  0.000  0.047  0.001  0.000  0.000  0.001  0.000  0.000  0.056
   29  0.000  0.002  0.000  0.001  0.000  0.000  0.000  0.000  0.000  0.003
   30  0.002  0.003  0.012  0.000  0.000  0.000  0.000  0.000  0.000  0.017
   31  0.002  0.003  0.012  0.000  0.000  0.000  0.000  0.000  0.000  0.017
   32  0.000  0.002  0.000  0.001  0.000  0.000  0.000  0.000  0.000  0.003
   33  0.000  0.002  0.000  0.000  0.000  0.000  0.000  0.000  0.000  0.003
   34  0.000  0.002  0.000  0.000  0.000  0.000  0.000  0.000  0.000  0.003
   35  0.001  0.000  0.001  0.000  0.000  0.000  0.000  0.000  0.000  0.002
   36  0.001  0.000  0.001  0.000  0.000  0.000  0.000  0.000  0.000  0.002
tot    0.095  0.059  0.286  0.042  0.039  0.001  0.081  0.000  0.065  0.668
 
band    48 # energy   -4.88689208 # occ.  1.00000000
 
ion      s     py     pz     px    dxy    dyz    dz2    dxz  x2-y2    tot
    1  0.000  0.002  0.000  0.002  0.007  0.000  0.017  0.000  0.000  0.028
    2  0.013  0.004  0.000  0.000  0.000  0.000  0.002  0.000  0.005  0.024
    3  0.000  0.000  0.000  0.003  0.002  0.000  0.017  0.000  0.004  0.028
    4  0.000  0.001  0.000  0.000  0.001  0.000  0.000  0.000  0.003  0.006
    5  0.013  0.004  0.000  0.000  0.000  0.000  0.002  0.000  0.005  0.024
    6  0.013  0.000  0.000  0.004  0.003  0.000  0.002  0.000  0.003  0.024
    7  0.000  0.006  0.000  0.002  0.005  0.000  0.000  0.000  0.016  0.029
    8  0.013  0.000  0.000  0.004  0.003  0.000  0.002  0.000  0.003  0.024
    9  0.000  0.006  0.000  0.002  0.005  0.000  0.000  0.000  0.016  0.029
   10  0.000  0.000  0.000  0.003  0.002  0.000  0.017  0.000  0.004  0.028
   11  0.000  0.001  0.000  0.000  0.001  0.000  0.000  0.000  0.003  0.006
   12  0.000  0.002  0.000  0.002  0.007  0.000  0.017  0.000  0.000  0.028
   13  0.000  0.002  0.000  0.001  0.000  0.000  0.000  0.000  0.000  0.003
   14  0.005  0.002  0.035  0.000  0.000  0.000  0.001  0.000  0.000  0.043
   15  0.005  0.002  0.035  0.000  0.000  0.000  0.001  0.000  0.000  0.043
   16  0.001  0.001  0.000  0.000  0.000  0.000  0.000  0.000  0.000  0.002
   17  0.001  0.001  0.000  0.000  0.000  0.000  0.000  0.000  0.000  0.002
   18  0.005  0.000  0.035  0.002  0.000  0.000  0.001  0.000  0.000  0.043
   19  0.005  0.000  0.035  0.002  0.000  0.000  0.001  0.000  0.000  0.043
   20  0.000  0.002  0.000  0.001  0.000  0.000  0.000  0.000  0.000  0.003
   21  0.005  0.002  0.035  0.000  0.000  0.000  0.001  0.000  0.000  0.043
   22  0.005  0.002  0.035  0.000  0.000  0.000  0.001  0.000  0.000  0.043
   23  0.000  0.003  0.000  0.001  0.000  0.000  0.000  0.000  0.000  0.004
   24  0.000  0.003  0.000  0.001  0.000  0.000  0.000  0.000  0.000  0.004
   25  0.001  0.000  0.000  0.001  0.000  0.000  0.000  0.000  0.000  0.002
   26  0.001  0.000  0.000  0.001  0.000  0.000  0.000  0.000  0.000  0.002
   27  0.000  0.002  0.000  0.001  0.000  0.000  0.000  0.000  0.000  0.003
   28  0.000  0.002  0.000  0.001  0.000  0.000  0.000  0.000  0.000  0.003
   29  0.001  0.001  0.000  0.000  0.000  0.000  0.000  0.000  0.000  0.002
   30  0.005  0.000  0.035  0.002  0.000  0.000  0.001  0.000  0.000  0.043
   31  0.005  0.000  0.035  0.002  0.000  0.000  0.001  0.000  0.000  0.043
   32  0.001  0.001  0.000  0.000  0.000  0.000  0.000  0.000  0.000  0.002
   33  0.001  0.000  0.000  0.001  0.000  0.000  0.000  0.000  0.000  0.002
   34  0.001  0.000  0.000  0.001  0.000  0.000  0.000  0.000  0.000  0.002
   35  0.000  0.003  0.000  0.001  0.000  0.000  0.000  0.000  0.000  0.004
   36  0.000  0.003  0.000  0.001  0.000  0.000  0.000  0.000  0.000  0.004
tot    0.095  0.059  0.286  0.042  0.039  0.001  0.081  0.000  0.065  0.668
 
band    49 # energy   -4.88662745 # occ.  1.00000000
 
ion      s     py     pz     px    dxy    dyz    dz2    dxz  x2-y2    tot
    1  0.004  0.006  0.000  0.000  0.003  0.000  0.001  0.000  0.013  0.028
    2  0.000  0.002  0.000  0.000  0.004  0.000  0.006  0.000  0.001  0.013
    3  0.004  0.003  0.000  0.004  0.005  0.000  0.001  0.000  0.011  0.028
    4  0.017  0.001  0.000  0.002  0.000  0.000  0.003  0.000  0.000  0.023
    5  0.000  0.002  0.000  0.000  0.004  0.000  0.006  0.000  0.001  0.013
    6  0.000  0.000  0.000  0.002  0.000  0.000  0.006  0.000  0.005  0.013
    7  0.000  0.001  0.000  0.003  0.006  0.000  0.023  0.000  0.002  0.035
    8  0.000  0.000  0.000  0.002  0.000  0.000  0.006  0.000  0.005  0.013
    9  0.000  0.001  0.000  0.003  0.006  0.000  0.023  0.000  0.002  0.035
   10  0.004  0.003  0.000  0.004  0.005  0.000  0.001  0.000  0.011  0.028
   11  0.017  0.001  0.000  0.002  0.000  0.000  0.003  0.000  0.000  0.023
   12  0.004  0.006  0.000  0.000  0.003  0.000  0.001  0.000  0.013  0.028
   13  0.001  0.000  0.001  0.000  0.000  0.000  0.000  0.000  0.000  0.002
   14  0.000  0.002  0.000  0.000  0.000  0.000  0.000  0.000  0.000  0.003
   15  0.000  0.002  0.000  0.000  0.000  0.000  0.000  0.000  0.000  0.003
   16  0.002  0.003  0.012  0.000  0.000  0.000  0.000  0.000  0.000  0.017
   17  0.002  0.003  0.012  0.000  0.000  0.000  0.000  0.000  0.000  0.017
   18  0.000  0.002  0.000  0.001  0.000  0.000  0.000  0.000  0.000  0.003
   19  0.000  0.002  0.000  0.001  0.000  0.000  0.000  0.000  0.000  0.003
   20  0.001  0.000  0.001  0.000  0.000  0.000  0.000  0.000  0.000  0.002
   21  0.000  0.002  0.000  0.000  0.000  0.000  0.000  0.000  0.000  0.003
   22  0.000  0.002  0.000  0.000  0.000  0.000  0.000  0.000  0.000  0.003
   23  0.006  0.000  0.047  0.001  0.000  0.000  0.001  0.000  0.000  0.056
   24  0.006  0.000  0.047  0.001  0.000  0.000  0.001  0.000  0.000  0.056
   25  0.002  0.001  0.012  0.002  0.000  0.000  0.000  0.000  0.000  0.017
   26  0.002  0.001  0.012  0.002  0.000  0.000  0.000  0.000  0.000  0.017
   27  0.001  0.000  0.001  0.000  0.000  0.000  0.000  0.000  0.000  0.002
   28  0.001  0.000  0.001  0.000  0.000  0.000  0.000  0.000  0.000  0.002
   29  0.002  0.003  0.012  0.000  0.000  0.000  0.000  0.000  0.000  0.017
   30  0.000  0.002  0.000  0.001  0.000  0.000  0.000  0.000  0.000  0.003
   31  0.000  0.002  0.000  0.001  0.000  0.000  0.000  0.000  0.000  0.003
   32  0.002  0.003  0.012  0.000  0.000  0.000  0.000  0.000  0.000  0.017
   33  0.002  0.001  0.012  0.002  0.000  0.000  0.000  0.000  0.000  0.017
   34  0.002  0.001  0.012  0.002  0.000  0.000  0.000  0.000  0.000  0.017
   35  0.006  0.000  0.047  0.001  0.000  0.000  0.001  0.000  0.000  0.056
   36  0.006  0.000  0.047  0.001  0.000  0.000  0.001  0.000  0.000  0.056
tot    0.095  0.059  0.286  0.042  0.039  0.001  0.081  0.000  0.065  0.668
 
band    50 # energy   -4.88650423 # occ.  1.00000000
 
ion      s     py     pz     px    dxy    dyz    dz2    dxz  x2-y2    tot
    1  0.013  0.000  0.000  0.004  0.003  0.000  0.002  0.000  0.003  0.024
    2  0.000  0.000  0.000  0.003  0.002  0.000  0.017  0.000  0.004  0.028
    3  0.013  0.004  0.000  0.000  0.000  0.000  0.002  0.000  0.005  0.024
    4  0.000  0.006  0.000  0.002  0.005  0.000  0.000  0.000  0.016  0.029
    5  0.000  0.000  0.000  0.003  0.002  0.000  0.017  0.000  0.004  0.028
    6  0.000  0.002  0.000  0.002  0.007  0.000  0.017  0.000  0.000  0.028
    7  0.000  0.001  0.000  0.000  0.001  0.000  0.000  0.000  0.003  0.006
    8  0.000  0.002  0.000  0.002  0.007  0.000  0.017  0.000  0.000  0.028
    9  0.000  0.001  0.000  0.000  0.001  0.000  0.000  0.000  0.003  0.006
   10  0.013  0.004  0.000  0.000  0.000  0.000  0.002  0.000  0.005  0.024
   11  0.000  0.006  0.000  0.002  0.005  0.000  0.000  0.000  0.016  0.029
   12  0.013  0.000  0.000  0.004  0.003  0.000  0.002  0.000  0.003  0.024
   13  0.000  0.003  0.000  0.001  0.000  0.000  0.000  0.000  0.000  0.004
   14  0.001  0.000  0.000  0.001  0.000  0.000  0.000  0.000  0.000  0.002
   15  0.001  0.000  0.000  0.001  0.000  0.000  0.000  0.000  0.000  0.002
   16  0.005  0.000  0.035  0.002  0.000  0.000  0.001  0.000  0.000  0.043
   17  0.005  0.000  0.035  0.002  0.000  0.000  0.001  0.000  0.000  0.043
   18  0.001  0.001  0.000  0.000  0.000  0.000  0.000  0.000  0.000  0.002
   19  0.001  0.001  0.000  0.000  0.000  0.000  0.000  0.000  0.000  0.002
   20  0.000  0.003  0.000  0.001  0.000  0.000  0.000  0.000  0.000  0.004
   21  0.001  0.000  0.000  0.001  0.000  0.000  0.000  0.000  0.000  0.002
   22  0.001  0.000  0.000  0.001  0.000  0.000  0.000  0.000  0.000  0.002
   23  0.000  0.002  0.000  0.001  0.000  0.000  0.000  0.000  0.000  0.003
   24  0.000  0.002  0.000  0.001  0.000  0.000  0.000  0.000  0.000  0.003
   25  0.005  0.002  0.035  0.000  0.000  0.000  0.001  0.000  0.000  0.043
   26  0.005  0.002  0.035  0.000  0.000  0.000  0.001  0.000  0.000  0.043
   27  0.000  0.003  0.000  0.001  0.000  0.000  0.000  0.000  0.000  0.004
   28  0.000  0.003  0.000  0.001  0.000  0.000  0.000  0.000  0.000  0.004
   29  0.005  0.000  0.035  0.002  0.000  0.000  0.001  0.000  0.000  0.043
   30  0.001  0.001  0.000  0.000  0.000  0.000  0.000  0.000  0.000  0.002
   31  0.001  0.001  0.000  0.000  0.000  0.000  0.000  0.000  0.000  0.002
   32  0.005  0.000  0.035  0.002  0.000  0.000  0.001  0.000  0.000  0.043
   33  0.005  0.002  0.035  0.000  0.000  0.000  0.001  0.000  0.000  0.043
   34  0.005  0.002  0.035  0.000  0.000  0.000  0.001  0.000  0.000  0.043
   35  0.000  0.002  0.000  0.001  0.000  0.000  0.000  0.000  0.000  0.003
   36  0.000  0.002  0.000  0.001  0.000  0.000  0.000  0.000  0.000  0.003
tot    0.095  0.059  0.286  0.042  0.039  0.001  0.081  0.000  0.065  0.668
 
band    51 # energy   -4.84788849 # occ.  1.00000000
 
ion      s     py     pz     px    dxy    dyz    dz2    dxz  x2-y2    tot
    1  0.019  0.000  0.000  0.001  0.005  0.000  0.001  0.000  0.000  0.027
    2  0.019  0.001  0.000  0.000  0.000  0.000  0.001  0.000  0.005  0.027
    3  0.019  0.001  0.000  0.000  0.000  0.000  0.001  0.000  0.005  0.027
    4  0.000  0.002  0.000  0.001  0.003  0.000  0.000  0.000  0.008  0.013
    5  0.019  0.001  0.000  0.000  0.000  0.000  0.001  0.000  0.005  0.027
    6  0.019  0.000  0.000  0.001  0.005  0.000  0.001  0.000  0.000  0.027
    7  0.000  0.002  0.000  0.001  0.003  0.000  0.000  0.000  0.008  0.013
    8  0.019  0.000  0.000  0.001  0.005  0.000  0.001  0.000  0.000  0.027
    9  0.000  0.002  0.000  0.001  0.003  0.000  0.000  0.000  0.008  0.013
   10  0.019  0.001  0.000  0.000  0.000  0.000  0.001  0.000  0.005  0.027
   11  0.000  0.002  0.000  0.001  0.003  0.000  0.000  0.000  0.008  0.013
   12  0.019  0.000  0.000  0.001  0.005  0.000  0.001  0.000  0.000  0.027
   13  0.000  0.012  0.000  0.004  0.000  0.000  0.000  0.000  0.000  0.016
   14  0.004  0.002  0.008  0.001  0.000  0.000  0.000  0.000  0.000  0.016
   15  0.004  0.002  0.008  0.001  0.000  0.000  0.000  0.000  0.000  0.016
   16  0.004  0.003  0.008  0.001  0.000  0.000  0.000  0.000  0.000  0.016
   17  0.004  0.003  0.008  0.001  0.000  0.000  0.000  0.000  0.000  0.016
   18  0.004  0.003  0.008  0.001  0.000  0.000  0.000  0.000  0.000  0.016
   19  0.004  0.003  0.008  0.001  0.000  0.000  0.000  0.000  0.000  0.016
   20  0.000  0.012  0.000  0.004  0.000  0.000  0.000  0.000  0.000  0.016
   21  0.004  0.002  0.008  0.001  0.000  0.000  0.000  0.000  0.000  0.016
   22  0.004  0.002  0.008  0.001  0.000  0.000  0.000  0.000  0.000  0.016
   23  0.000  0.012  0.000  0.004  0.000  0.000  0.000  0.000  0.000  0.016
   24  0.000  0.012  0.000  0.004  0.000  0.000  0.000  0.000  0.000  0.016
   25  0.004  0.002  0.008  0.001  0.000  0.000  0.000  0.000  0.000  0.016
   26  0.004  0.002  0.008  0.001  0.000  0.000  0.000  0.000  0.000  0.016
   27  0.000  0.012  0.000  0.004  0.000  0.000  0.000  0.000  0.000  0.016
   28  0.000  0.012  0.000  0.004  0.000  0.000  0.000  0.000  0.000  0.016
   29  0.004  0.003  0.008  0.001  0.000  0.000  0.000  0.000  0.000  0.016
   30  0.004  0.003  0.008  0.001  0.000  0.000  0.000  0.000  0.000  0.016
   31  0.004  0.003  0.008  0.001  0.000  0.000  0.000  0.000  0.000  0.016
   32  0.004  0.003  0.008  0.001  0.000  0.000  0.000  0.000  0.000  0.016
   33  0.004  0.002  0.008  0.001  0.000  0.000  0.000  0.000  0.000  0.016
   34  0.004  0.002  0.008  0.001  0.000  0.000  0.000  0.000  0.000  0.016
   35  0.000  0.012  0.000  0.004  0.000  0.000  0.000  0.000  0.000  0.016
   36  0.000  0.012  0.000  0.004  0.000  0.000  0.000  0.000  0.000  0.016
tot    0.222  0.150  0.127  0.056  0.031  0.005  0.007  0.002  0.053  0.653
 
band    52 # energy   -4.84787531 # occ.  1.00000000
 
ion      s     py     pz     px    dxy    dyz    dz2    dxz  x2-y2    tot
    1  0.006  0.002  0.000  0.000  0.000  0.000  0.000  0.000  0.008  0.017
    2  0.006  0.001  0.000  0.001  0.005  0.000  0.000  0.000  0.004  0.018
    3  0.006  0.001  0.000  0.001  0.005  0.000  0.000  0.000  0.004  0.018
    4  0.026  0.000  0.000  0.001  0.002  0.000  0.001  0.000  0.001  0.032
    5  0.006  0.001  0.000  0.001  0.005  0.000  0.000  0.000  0.004  0.018
    6  0.006  0.002  0.000  0.000  0.000  0.000  0.000  0.000  0.009  0.018
    7  0.026  0.000  0.000  0.001  0.002  0.000  0.001  0.000  0.001  0.032
    8  0.006  0.002  0.000  0.000  0.000  0.000  0.000  0.000  0.009  0.018
    9  0.026  0.000  0.000  0.001  0.002  0.000  0.001  0.000  0.001  0.032
   10  0.006  0.001  0.000  0.001  0.005  0.000  0.000  0.000  0.004  0.018
   11  0.026  0.000  0.000  0.001  0.002  0.000  0.001  0.000  0.001  0.032
   12  0.006  0.002  0.000  0.000  0.000  0.000  0.000  0.000  0.008  0.017
   13  0.006  0.000  0.011  0.000  0.000  0.000  0.000  0.000  0.000  0.016
   14  0.001  0.009  0.003  0.003  0.000  0.000  0.000  0.000  0.000  0.016
   15  0.001  0.009  0.003  0.003  0.000  0.000  0.000  0.000  0.000  0.016
   16  0.001  0.008  0.003  0.003  0.000  0.000  0.000  0.000  0.000  0.016
   17  0.001  0.008  0.003  0.003  0.000  0.000  0.000  0.000  0.000  0.016
   18  0.001  0.008  0.003  0.003  0.000  0.000  0.000  0.000  0.000  0.016
   19  0.001  0.008  0.003  0.003  0.000  0.000  0.000  0.000  0.000  0.016
   20  0.006  0.000  0.011  0.000  0.000  0.000  0.000  0.000  0.000  0.016
   21  0.001  0.009  0.003  0.003  0.000  0.000  0.000  0.000  0.000  0.016
   22  0.001  0.009  0.003  0.003  0.000  0.000  0.000  0.000  0.000  0.016
   23  0.006  0.000  0.011  0.000  0.000  0.000  0.000  0.000  0.000  0.016
   24  0.006  0.000  0.011  0.000  0.000  0.000  0.000  0.000  0.000  0.016
   25  0.001  0.009  0.003  0.003  0.000  0.000  0.000  0.000  0.000  0.016
   26  0.001  0.009  0.003  0.003  0.000  0.000  0.000  0.000  0.000  0.016
   27  0.006  0.000  0.011  0.000  0.000  0.000  0.000  0.000  0.000  0.016
   28  0.006  0.000  0.011  0.000  0.000  0.000  0.000  0.000  0.000  0.016
   29  0.001  0.008  0.003  0.003  0.000  0.000  0.000  0.000  0.000  0.016
   30  0.001  0.008  0.003  0.003  0.000  0.000  0.000  0.000  0.000  0.016
   31  0.001  0.008  0.003  0.003  0.000  0.000  0.000  0.000  0.000  0.016
   32  0.001  0.008  0.003  0.003  0.000  0.000  0.000  0.000  0.000  0.016
   33  0.001  0.009  0.003  0.003  0.000  0.000  0.000  0.000  0.000  0.016
   34  0.001  0.009  0.003  0.003  0.000  0.000  0.000  0.000  0.000  0.016
   35  0.006  0.000  0.011  0.000  0.000  0.000  0.000  0.000  0.000  0.016
   36  0.006  0.000  0.011  0.000  0.000  0.000  0.000  0.000  0.000  0.016
tot    0.222  0.150  0.127  0.056  0.031  0.005  0.007  0.002  0.053  0.653
 
band    53 # energy   -4.76688918 # occ.  1.00000000
 
ion      s     py     pz     px    dxy    dyz    dz2    dxz  x2-y2    tot
    1  0.017  0.001  0.000  0.004  0.002  0.000  0.000  0.000  0.001  0.024
    2  0.001  0.000  0.000  0.000  0.017  0.000  0.004  0.000  0.006  0.027
    3  0.017  0.001  0.000  0.004  0.002  0.000  0.000  0.000  0.001  0.024
    4  0.017  0.001  0.000  0.004  0.002  0.000  0.000  0.000  0.001  0.024
    5  0.001  0.000  0.000  0.000  0.017  0.000  0.004  0.000  0.006  0.027
    6  0.001  0.000  0.000  0.000  0.017  0.000  0.004  0.000  0.006  0.027
    7  0.001  0.000  0.000  0.000  0.017  0.000  0.004  0.000  0.006  0.027
    8  0.001  0.000  0.000  0.000  0.017  0.000  0.004  0.000  0.006  0.027
    9  0.001  0.000  0.000  0.000  0.017  0.000  0.004  0.000  0.006  0.027
   10  0.017  0.001  0.000  0.004  0.002  0.000  0.000  0.000  0.001  0.024
   11  0.017  0.001  0.000  0.004  0.002  0.000  0.000  0.000  0.001  0.024
   12  0.017  0.001  0.000  0.004  0.002  0.000  0.000  0.000  0.001  0.024
   13  0.002  0.003  0.004  0.010  0.000  0.000  0.000  0.000  0.000  0.019
   14  0.002  0.003  0.004  0.010  0.000  0.000  0.000  0.000  0.000  0.019
   15  0.002  0.003  0.004  0.010  0.000  0.000  0.000  0.000  0.000  0.019
   16  0.002  0.002  0.001  0.005  0.000  0.000  0.000  0.000  0.000  0.011
   17  0.002  0.002  0.001  0.005  0.000  0.000  0.000  0.000  0.000  0.011
   18  0.002  0.003  0.004  0.010  0.000  0.000  0.000  0.000  0.000  0.019
   19  0.002  0.003  0.004  0.010  0.000  0.000  0.000  0.000  0.000  0.019
   20  0.002  0.003  0.004  0.010  0.000  0.000  0.000  0.000  0.000  0.019
   21  0.002  0.003  0.004  0.010  0.000  0.000  0.000  0.000  0.000  0.019
   22  0.002  0.003  0.004  0.010  0.000  0.000  0.000  0.000  0.000  0.019
   23  0.002  0.002  0.001  0.005  0.000  0.000  0.000  0.000  0.000  0.011
   24  0.002  0.002  0.001  0.005  0.000  0.000  0.000  0.000  0.000  0.011
   25  0.002  0.002  0.001  0.005  0.000  0.000  0.000  0.000  0.000  0.011
   26  0.002  0.002  0.001  0.005  0.000  0.000  0.000  0.000  0.000  0.011
   27  0.002  0.003  0.004  0.010  0.000  0.000  0.000  0.000  0.000  0.019
   28  0.002  0.003  0.004  0.010  0.000  0.000  0.000  0.000  0.000  0.019
   29  0.002  0.002  0.001  0.005  0.000  0.000  0.000  0.000  0.000  0.011
   30  0.002  0.003  0.004  0.010  0.000  0.000  0.000  0.000  0.000  0.019
   31  0.002  0.003  0.004  0.010  0.000  0.000  0.000  0.000  0.000  0.019
   32  0.002  0.002  0.001  0.005  0.000  0.000  0.000  0.000  0.000  0.011
   33  0.002  0.002  0.001  0.005  0.000  0.000  0.000  0.000  0.000  0.011
   34  0.002  0.002  0.001  0.005  0.000  0.000  0.000  0.000  0.000  0.011
   35  0.002  0.002  0.001  0.005  0.000  0.000  0.000  0.000  0.000  0.011
   36  0.002  0.002  0.001  0.005  0.000  0.000  0.000  0.000  0.000  0.011
tot    0.159  0.069  0.053  0.207  0.111  0.002  0.025  0.005  0.037  0.667
 
band    54 # energy   -4.76649933 # occ.  1.00000000
 
ion      s     py     pz     px    dxy    dyz    dz2    dxz  x2-y2    tot
    1  0.001  0.000  0.000  0.000  0.017  0.000  0.004  0.000  0.006  0.027
    2  0.017  0.001  0.000  0.004  0.002  0.000  0.000  0.000  0.001  0.024
    3  0.001  0.000  0.000  0.000  0.017  0.000  0.004  0.000  0.006  0.027
    4  0.001  0.000  0.000  0.000  0.017  0.000  0.004  0.000  0.006  0.027
    5  0.017  0.001  0.000  0.004  0.002  0.000  0.000  0.000  0.001  0.024
    6  0.017  0.001  0.000  0.004  0.002  0.000  0.000  0.000  0.001  0.024
    7  0.017  0.001  0.000  0.004  0.002  0.000  0.000  0.000  0.001  0.024
    8  0.017  0.001  0.000  0.004  0.002  0.000  0.000  0.000  0.001  0.024
    9  0.017  0.001  0.000  0.004  0.002  0.000  0.000  0.000  0.001  0.024
   10  0.001  0.000  0.000  0.000  0.017  0.000  0.004  0.000  0.006  0.027
   11  0.001  0.000  0.000  0.000  0.017  0.000  0.004  0.000  0.006  0.027
   12  0.001  0.000  0.000  0.000  0.017  0.000  0.004  0.000  0.006  0.027
   13  0.002  0.002  0.001  0.005  0.000  0.000  0.000  0.000  0.000  0.011
   14  0.002  0.002  0.001  0.005  0.000  0.000  0.000  0.000  0.000  0.011
   15  0.002  0.002  0.001  0.005  0.000  0.000  0.000  0.000  0.000  0.011
   16  0.002  0.003  0.004  0.010  0.000  0.000  0.000  0.000  0.000  0.019
   17  0.002  0.003  0.004  0.010  0.000  0.000  0.000  0.000  0.000  0.019
   18  0.002  0.002  0.001  0.005  0.000  0.000  0.000  0.000  0.000  0.011
   19  0.002  0.002  0.001  0.005  0.000  0.000  0.000  0.000  0.000  0.011
   20  0.002  0.002  0.001  0.005  0.000  0.000  0.000  0.000  0.000  0.011
   21  0.002  0.002  0.001  0.005  0.000  0.000  0.000  0.000  0.000  0.011
   22  0.002  0.002  0.001  0.005  0.000  0.000  0.000  0.000  0.000  0.011
   23  0.002  0.003  0.004  0.010  0.000  0.000  0.000  0.000  0.000  0.019
   24  0.002  0.003  0.004  0.010  0.000  0.000  0.000  0.000  0.000  0.019
   25  0.002  0.003  0.004  0.010  0.000  0.000  0.000  0.000  0.000  0.019
   26  0.002  0.003  0.004  0.010  0.000  0.000  0.000  0.000  0.000  0.019
   27  0.002  0.002  0.001  0.005  0.000  0.000  0.000  0.000  0.000  0.011
   28  0.002  0.002  0.001  0.005  0.000  0.000  0.000  0.000  0.000  0.011
   29  0.002  0.003  0.004  0.010  0.000  0.000  0.000  0.000  0.000  0.019
   30  0.002  0.002  0.001  0.005  0.000  0.000  0.000  0.000  0.000  0.011
   31  0.002  0.002  0.001  0.005  0.000  0.000  0.000  0.000  0.000  0.011
   32  0.002  0.003  0.004  0.010  0.000  0.000  0.000  0.000  0.000  0.019
   33  0.002  0.003  0.004  0.010  0.000  0.000  0.000  0.000  0.000  0.019
   34  0.002  0.003  0.004  0.010  0.000  0.000  0.000  0.000  0.000  0.019
   35  0.002  0.003  0.004  0.010  0.000  0.000  0.000  0.000  0.000  0.019
   36  0.002  0.003  0.004  0.010  0.000  0.000  0.000  0.000  0.000  0.019
tot    0.159  0.069  0.053  0.207  0.111  0.002  0.025  0.005  0.037  0.667
 
band    55 # energy   -4.52158389 # occ.  1.00000000
 
ion      s     py     pz     px    dxy    dyz    dz2    dxz  x2-y2    tot
    1  0.000  0.005  0.000  0.000  0.000  0.000  0.000  0.000  0.019  0.024
    2  0.000  0.001  0.000  0.004  0.014  0.000  0.000  0.000  0.005  0.024
    3  0.000  0.001  0.000  0.004  0.014  0.000  0.000  0.000  0.005  0.024
    4  0.000  0.001  0.000  0.004  0.014  0.000  0.000  0.000  0.005  0.024
    5  0.000  0.001  0.000  0.004  0.014  0.000  0.000  0.000  0.005  0.024
    6  0.000  0.005  0.000  0.000  0.000  0.000  0.000  0.000  0.019  0.024
    7  0.000  0.001  0.000  0.004  0.014  0.000  0.000  0.000  0.005  0.024
    8  0.000  0.005  0.000  0.000  0.000  0.000  0.000  0.000  0.019  0.024
    9  0.000  0.001  0.000  0.004  0.014  0.000  0.000  0.000  0.005  0.024
   10  0.000  0.001  0.000  0.004  0.014  0.000  0.000  0.000  0.005  0.024
   11  0.000  0.001  0.000  0.004  0.014  0.000  0.000  0.000  0.005  0.024
   12  0.000  0.005  0.000  0.000  0.000  0.000  0.000  0.000  0.019  0.024
   13  0.004  0.000  0.030  0.000  0.000  0.000  0.000  0.000  0.000  0.035
   14  0.001  0.000  0.007  0.000  0.000  0.000  0.000  0.000  0.000  0.009
   15  0.001  0.000  0.007  0.000  0.000  0.000  0.000  0.000  0.000  0.009
   16  0.001  0.000  0.008  0.000  0.000  0.000  0.000  0.000  0.000  0.009
   17  0.001  0.000  0.008  0.000  0.000  0.000  0.000  0.000  0.000  0.009
   18  0.001  0.000  0.008  0.000  0.000  0.000  0.000  0.000  0.000  0.009
   19  0.001  0.000  0.008  0.000  0.000  0.000  0.000  0.000  0.000  0.009
   20  0.004  0.000  0.030  0.000  0.000  0.000  0.000  0.000  0.000  0.035
   21  0.001  0.000  0.007  0.000  0.000  0.000  0.000  0.000  0.000  0.009
   22  0.001  0.000  0.007  0.000  0.000  0.000  0.000  0.000  0.000  0.009
   23  0.004  0.000  0.030  0.000  0.000  0.000  0.000  0.000  0.000  0.035
   24  0.004  0.000  0.030  0.000  0.000  0.000  0.000  0.000  0.000  0.035
   25  0.001  0.000  0.007  0.000  0.000  0.000  0.000  0.000  0.000  0.009
   26  0.001  0.000  0.007  0.000  0.000  0.000  0.000  0.000  0.000  0.009
   27  0.004  0.000  0.030  0.000  0.000  0.000  0.000  0.000  0.000  0.035
   28  0.004  0.000  0.030  0.000  0.000  0.000  0.000  0.000  0.000  0.035
   29  0.001  0.000  0.008  0.000  0.000  0.000  0.000  0.000  0.000  0.009
   30  0.001  0.000  0.008  0.000  0.000  0.000  0.000  0.000  0.000  0.009
   31  0.001  0.000  0.008  0.000  0.000  0.000  0.000  0.000  0.000  0.009
   32  0.001  0.000  0.008  0.000  0.000  0.000  0.000  0.000  0.000  0.009
   33  0.001  0.000  0.007  0.000  0.000  0.000  0.000  0.000  0.000  0.009
   34  0.001  0.000  0.007  0.000  0.000  0.000  0.000  0.000  0.000  0.009
   35  0.004  0.000  0.030  0.000  0.000  0.000  0.000  0.000  0.000  0.035
   36  0.004  0.000  0.030  0.000  0.000  0.000  0.000  0.000  0.000  0.035
tot    0.049  0.030  0.366  0.029  0.115  0.000  0.006  0.000  0.114  0.708
 
band    56 # energy   -4.52157762 # occ.  1.00000000
 
ion      s     py     pz     px    dxy    dyz    dz2    dxz  x2-y2    tot
    1  0.000  0.000  0.000  0.005  0.019  0.000  0.000  0.000  0.000  0.024
    2  0.000  0.004  0.000  0.001  0.005  0.000  0.000  0.000  0.014  0.024
    3  0.000  0.004  0.000  0.001  0.005  0.000  0.000  0.000  0.014  0.024
    4  0.000  0.004  0.000  0.001  0.005  0.000  0.000  0.000  0.014  0.024
    5  0.000  0.004  0.000  0.001  0.005  0.000  0.000  0.000  0.014  0.024
    6  0.000  0.000  0.000  0.005  0.019  0.000  0.000  0.000  0.000  0.024
    7  0.000  0.004  0.000  0.001  0.005  0.000  0.000  0.000  0.014  0.024
    8  0.000  0.000  0.000  0.005  0.019  0.000  0.000  0.000  0.000  0.024
    9  0.000  0.004  0.000  0.001  0.005  0.000  0.000  0.000  0.014  0.024
   10  0.000  0.004  0.000  0.001  0.005  0.000  0.000  0.000  0.014  0.024
   11  0.000  0.004  0.000  0.001  0.005  0.000  0.000  0.000  0.014  0.024
   12  0.000  0.000  0.000  0.005  0.019  0.000  0.000  0.000  0.000  0.024
   13  0.000  0.000  0.000  0.000  0.000  0.000  0.000  0.000  0.000  0.000
   14  0.003  0.000  0.023  0.000  0.000  0.000  0.000  0.000  0.000  0.026
   15  0.003  0.000  0.023  0.000  0.000  0.000  0.000  0.000  0.000  0.026
   16  0.003  0.000  0.023  0.000  0.000  0.000  0.000  0.000  0.000  0.026
   17  0.003  0.000  0.023  0.000  0.000  0.000  0.000  0.000  0.000  0.026
   18  0.003  0.000  0.023  0.000  0.000  0.000  0.000  0.000  0.000  0.026
   19  0.003  0.000  0.023  0.000  0.000  0.000  0.000  0.000  0.000  0.026
   20  0.000  0.000  0.000  0.000  0.000  0.000  0.000  0.000  0.000  0.000
   21  0.003  0.000  0.023  0.000  0.000  0.000  0.000  0.000  0.000  0.026
   22  0.003  0.000  0.023  0.000  0.000  0.000  0.000  0.000  0.000  0.026
   23  0.000  0.000  0.000  0.000  0.000  0.000  0.000  0.000  0.000  0.000
   24  0.000  0.000  0.000  0.000  0.000  0.000  0.000  0.000  0.000  0.000
   25  0.003  0.000  0.023  0.000  0.000  0.000  0.000  0.000  0.000  0.026
   26  0.003  0.000  0.023  0.000  0.000  0.000  0.000  0.000  0.000  0.026
   27  0.000  0.000  0.000  0.000  0.000  0.000  0.000  0.000  0.000  0.000
   28  0.000  0.000  0.000  0.000  0.000  0.000  0.000  0.000  0.000  0.000
   29  0.003  0.000  0.023  0.000  0.000  0.000  0.000  0.000  0.000  0.026
   30  0.003  0.000  0.023  0.000  0.000  0.000  0.000  0.000  0.000  0.026
   31  0.003  0.000  0.023  0.000  0.000  0.000  0.000  0.000  0.000  0.026
   32  0.003  0.000  0.023  0.000  0.000  0.000  0.000  0.000  0.000  0.026
   33  0.003  0.000  0.023  0.000  0.000  0.000  0.000  0.000  0.000  0.026
   34  0.003  0.000  0.023  0.000  0.000  0.000  0.000  0.000  0.000  0.026
   35  0.000  0.000  0.000  0.000  0.000  0.000  0.000  0.000  0.000  0.000
   36  0.000  0.000  0.000  0.000  0.000  0.000  0.000  0.000  0.000  0.000
tot    0.049  0.030  0.366  0.029  0.115  0.000  0.006  0.000  0.114  0.708
 
band    57 # energy   -4.51776222 # occ.  1.00000000
 
ion      s     py     pz     px    dxy    dyz    dz2    dxz  x2-y2    tot
    1  0.000  0.000  0.001  0.000  0.000  0.000  0.000  0.015  0.000  0.016
    2  0.000  0.000  0.001  0.000  0.000  0.013  0.000  0.002  0.000  0.016
    3  0.000  0.000  0.001  0.000  0.000  0.013  0.000  0.002  0.000  0.016
    4  0.000  0.000  0.002  0.000  0.000  0.010  0.000  0.030  0.000  0.042
    5  0.000  0.000  0.001  0.000  0.000  0.013  0.000  0.002  0.000  0.016
    6  0.000  0.000  0.001  0.000  0.000  0.000  0.000  0.015  0.000  0.016
    7  0.000  0.000  0.002  0.000  0.000  0.010  0.000  0.030  0.000  0.042
    8  0.000  0.000  0.001  0.000  0.000  0.000  0.000  0.015  0.000  0.016
    9  0.000  0.000  0.002  0.000  0.000  0.010  0.000  0.030  0.000  0.042
   10  0.000  0.000  0.001  0.000  0.000  0.013  0.000  0.002  0.000  0.016
   11  0.000  0.000  0.002  0.000  0.000  0.010  0.000  0.030  0.000  0.042
   12  0.000  0.000  0.001  0.000  0.000  0.000  0.000  0.015  0.000  0.016
   13  0.001  0.000  0.004  0.001  0.000  0.000  0.000  0.000  0.000  0.006
   14  0.000  0.013  0.001  0.007  0.000  0.000  0.000  0.000  0.000  0.022
   15  0.000  0.013  0.001  0.007  0.000  0.000  0.000  0.000  0.000  0.022
   16  0.000  0.017  0.001  0.003  0.000  0.000  0.000  0.000  0.000  0.022
   17  0.000  0.017  0.001  0.003  0.000  0.000  0.000  0.000  0.000  0.022
   18  0.000  0.017  0.001  0.003  0.000  0.000  0.000  0.000  0.000  0.022
   19  0.000  0.017  0.001  0.003  0.000  0.000  0.000  0.000  0.000  0.022
   20  0.001  0.000  0.004  0.001  0.000  0.000  0.000  0.000  0.000  0.006
   21  0.000  0.013  0.001  0.007  0.000  0.000  0.000  0.000  0.000  0.022
   22  0.000  0.013  0.001  0.007  0.000  0.000  0.000  0.000  0.000  0.022
   23  0.001  0.000  0.004  0.001  0.000  0.000  0.000  0.000  0.000  0.006
   24  0.001  0.000  0.004  0.001  0.000  0.000  0.000  0.000  0.000  0.006
   25  0.000  0.013  0.001  0.007  0.000  0.000  0.000  0.000  0.000  0.022
   26  0.000  0.013  0.001  0.007  0.000  0.000  0.000  0.000  0.000  0.022
   27  0.001  0.000  0.004  0.001  0.000  0.000  0.000  0.000  0.000  0.006
   28  0.001  0.000  0.004  0.001  0.000  0.000  0.000  0.000  0.000  0.006
   29  0.000  0.017  0.001  0.003  0.000  0.000  0.000  0.000  0.000  0.022
   30  0.000  0.017  0.001  0.003  0.000  0.000  0.000  0.000  0.000  0.022
   31  0.000  0.017  0.001  0.003  0.000  0.000  0.000  0.000  0.000  0.022
   32  0.000  0.017  0.001  0.003  0.000  0.000  0.000  0.000  0.000  0.022
   33  0.000  0.013  0.001  0.007  0.000  0.000  0.000  0.000  0.000  0.022
   34  0.000  0.013  0.001  0.007  0.000  0.000  0.000  0.000  0.000  0.022
   35  0.001  0.000  0.004  0.001  0.000  0.000  0.000  0.000  0.000  0.006
   36  0.001  0.000  0.004  0.001  0.000  0.000  0.000  0.000  0.000  0.006
tot    0.008  0.243  0.065  0.088  0.001  0.094  0.001  0.191  0.000  0.691
 
band    58 # energy   -4.51750564 # occ.  1.00000000
 
ion      s     py     pz     px    dxy    dyz    dz2    dxz  x2-y2    tot
    1  0.000  0.000  0.002  0.000  0.000  0.015  0.000  0.016  0.000  0.033
    2  0.000  0.000  0.002  0.000  0.000  0.002  0.000  0.029  0.000  0.033
    3  0.000  0.000  0.002  0.000  0.000  0.002  0.000  0.029  0.000  0.033
    4  0.000  0.000  0.000  0.000  0.000  0.005  0.000  0.002  0.000  0.007
    5  0.000  0.000  0.002  0.000  0.000  0.002  0.000  0.029  0.000  0.033
    6  0.000  0.000  0.002  0.000  0.000  0.015  0.000  0.016  0.000  0.033
    7  0.000  0.000  0.000  0.000  0.000  0.005  0.000  0.002  0.000  0.007
    8  0.000  0.000  0.002  0.000  0.000  0.015  0.000  0.016  0.000  0.033
    9  0.000  0.000  0.000  0.000  0.000  0.005  0.000  0.002  0.000  0.007
   10  0.000  0.000  0.002  0.000  0.000  0.002  0.000  0.029  0.000  0.033
   11  0.000  0.000  0.000  0.000  0.000  0.005  0.000  0.002  0.000  0.007
   12  0.000  0.000  0.002  0.000  0.000  0.015  0.000  0.016  0.000  0.033
   13  0.000  0.020  0.000  0.007  0.000  0.000  0.000  0.000  0.000  0.027
   14  0.000  0.007  0.003  0.000  0.000  0.000  0.000  0.000  0.000  0.011
   15  0.000  0.007  0.003  0.000  0.000  0.000  0.000  0.000  0.000  0.011
   16  0.000  0.003  0.003  0.004  0.000  0.000  0.000  0.000  0.000  0.011
   17  0.000  0.003  0.003  0.004  0.000  0.000  0.000  0.000  0.000  0.011
   18  0.000  0.003  0.003  0.004  0.000  0.000  0.000  0.000  0.000  0.011
   19  0.000  0.003  0.003  0.004  0.000  0.000  0.000  0.000  0.000  0.011
   20  0.000  0.020  0.000  0.007  0.000  0.000  0.000  0.000  0.000  0.027
   21  0.000  0.007  0.003  0.000  0.000  0.000  0.000  0.000  0.000  0.011
   22  0.000  0.007  0.003  0.000  0.000  0.000  0.000  0.000  0.000  0.011
   23  0.000  0.020  0.000  0.007  0.000  0.000  0.000  0.000  0.000  0.027
   24  0.000  0.020  0.000  0.007  0.000  0.000  0.000  0.000  0.000  0.027
   25  0.000  0.007  0.003  0.000  0.000  0.000  0.000  0.000  0.000  0.011
   26  0.000  0.007  0.003  0.000  0.000  0.000  0.000  0.000  0.000  0.011
   27  0.000  0.020  0.000  0.007  0.000  0.000  0.000  0.000  0.000  0.027
   28  0.000  0.020  0.000  0.007  0.000  0.000  0.000  0.000  0.000  0.027
   29  0.000  0.003  0.003  0.004  0.000  0.000  0.000  0.000  0.000  0.011
   30  0.000  0.003  0.003  0.004  0.000  0.000  0.000  0.000  0.000  0.011
   31  0.000  0.003  0.003  0.004  0.000  0.000  0.000  0.000  0.000  0.011
   32  0.000  0.003  0.003  0.004  0.000  0.000  0.000  0.000  0.000  0.011
   33  0.000  0.007  0.003  0.000  0.000  0.000  0.000  0.000  0.000  0.011
   34  0.000  0.007  0.003  0.000  0.000  0.000  0.000  0.000  0.000  0.011
   35  0.000  0.020  0.000  0.007  0.000  0.000  0.000  0.000  0.000  0.027
   36  0.000  0.020  0.000  0.007  0.000  0.000  0.000  0.000  0.000  0.027
tot    0.008  0.243  0.065  0.088  0.001  0.094  0.001  0.191  0.000  0.691
 
band    59 # energy   -4.44125160 # occ.  1.00000000
 
ion      s     py     pz     px    dxy    dyz    dz2    dxz  x2-y2    tot
    1  0.000  0.000  0.001  0.000  0.000  0.007  0.000  0.021  0.000  0.029
    2  0.000  0.000  0.000  0.000  0.000  0.006  0.000  0.018  0.000  0.024
    3  0.000  0.000  0.001  0.000  0.000  0.007  0.000  0.021  0.000  0.029
    4  0.000  0.000  0.001  0.000  0.000  0.007  0.000  0.021  0.000  0.030
    5  0.000  0.000  0.000  0.000  0.000  0.006  0.000  0.018  0.000  0.024
    6  0.000  0.000  0.000  0.000  0.000  0.006  0.000  0.018  0.000  0.024
    7  0.000  0.000  0.000  0.000  0.000  0.006  0.000  0.018  0.000  0.024
    8  0.000  0.000  0.000  0.000  0.000  0.006  0.000  0.018  0.000  0.024
    9  0.000  0.000  0.000  0.000  0.000  0.006  0.000  0.018  0.000  0.024
   10  0.000  0.000  0.001  0.000  0.000  0.007  0.000  0.021  0.000  0.029
   11  0.000  0.000  0.001  0.000  0.000  0.007  0.000  0.021  0.000  0.030
   12  0.000  0.000  0.001  0.000  0.000  0.007  0.000  0.021  0.000  0.029
   13  0.001  0.003  0.000  0.010  0.000  0.000  0.000  0.000  0.000  0.014
   14  0.001  0.003  0.000  0.010  0.000  0.000  0.000  0.000  0.000  0.014
   15  0.001  0.003  0.000  0.010  0.000  0.000  0.000  0.000  0.000  0.014
   16  0.000  0.002  0.010  0.006  0.000  0.000  0.000  0.000  0.000  0.018
   17  0.000  0.002  0.010  0.006  0.000  0.000  0.000  0.000  0.000  0.018
   18  0.001  0.003  0.000  0.010  0.000  0.000  0.000  0.000  0.000  0.014
   19  0.001  0.003  0.000  0.010  0.000  0.000  0.000  0.000  0.000  0.014
   20  0.001  0.003  0.000  0.010  0.000  0.000  0.000  0.000  0.000  0.014
   21  0.001  0.003  0.000  0.010  0.000  0.000  0.000  0.000  0.000  0.014
   22  0.001  0.003  0.000  0.010  0.000  0.000  0.000  0.000  0.000  0.014
   23  0.000  0.002  0.010  0.006  0.000  0.000  0.000  0.000  0.000  0.018
   24  0.000  0.002  0.010  0.006  0.000  0.000  0.000  0.000  0.000  0.018
   25  0.000  0.002  0.010  0.006  0.000  0.000  0.000  0.000  0.000  0.018
   26  0.000  0.002  0.010  0.006  0.000  0.000  0.000  0.000  0.000  0.018
   27  0.001  0.003  0.000  0.010  0.000  0.000  0.000  0.000  0.000  0.014
   28  0.001  0.003  0.000  0.010  0.000  0.000  0.000  0.000  0.000  0.014
   29  0.000  0.002  0.010  0.006  0.000  0.000  0.000  0.000  0.000  0.018
   30  0.001  0.003  0.000  0.010  0.000  0.000  0.000  0.000  0.000  0.014
   31  0.001  0.003  0.000  0.010  0.000  0.000  0.000  0.000  0.000  0.014
   32  0.000  0.002  0.010  0.006  0.000  0.000  0.000  0.000  0.000  0.018
   33  0.000  0.002  0.010  0.006  0.000  0.000  0.000  0.000  0.000  0.018
   34  0.000  0.002  0.010  0.006  0.000  0.000  0.000  0.000  0.000  0.018
   35  0.000  0.002  0.010  0.006  0.000  0.000  0.000  0.000  0.000  0.018
   36  0.000  0.002  0.010  0.006  0.000  0.000  0.000  0.000  0.000  0.018
tot    0.008  0.062  0.123  0.186  0.003  0.079  0.001  0.236  0.001  0.699
 
band    60 # energy   -4.44019987 # occ.  1.00000000
 
ion      s     py     pz     px    dxy    dyz    dz2    dxz  x2-y2    tot
    1  0.000  0.000  0.000  0.000  0.000  0.006  0.000  0.018  0.000  0.024
    2  0.000  0.000  0.001  0.000  0.000  0.007  0.000  0.021  0.000  0.029
    3  0.000  0.000  0.000  0.000  0.000  0.006  0.000  0.018  0.000  0.024
    4  0.000  0.000  0.000  0.000  0.000  0.006  0.000  0.018  0.000  0.024
    5  0.000  0.000  0.001  0.000  0.000  0.007  0.000  0.021  0.000  0.029
    6  0.000  0.000  0.001  0.000  0.000  0.007  0.000  0.021  0.000  0.029
    7  0.000  0.000  0.001  0.000  0.000  0.007  0.000  0.021  0.000  0.030
    8  0.000  0.000  0.001  0.000  0.000  0.007  0.000  0.021  0.000  0.029
    9  0.000  0.000  0.001  0.000  0.000  0.007  0.000  0.021  0.000  0.029
   10  0.000  0.000  0.000  0.000  0.000  0.006  0.000  0.018  0.000  0.024
   11  0.000  0.000  0.000  0.000  0.000  0.006  0.000  0.018  0.000  0.024
   12  0.000  0.000  0.000  0.000  0.000  0.006  0.000  0.018  0.000  0.024
   13  0.000  0.002  0.010  0.006  0.000  0.000  0.000  0.000  0.000  0.018
   14  0.000  0.002  0.010  0.006  0.000  0.000  0.000  0.000  0.000  0.018
   15  0.000  0.002  0.010  0.006  0.000  0.000  0.000  0.000  0.000  0.018
   16  0.001  0.003  0.000  0.010  0.000  0.000  0.000  0.000  0.000  0.014
   17  0.001  0.003  0.000  0.010  0.000  0.000  0.000  0.000  0.000  0.014
   18  0.000  0.002  0.010  0.006  0.000  0.000  0.000  0.000  0.000  0.018
   19  0.000  0.002  0.010  0.006  0.000  0.000  0.000  0.000  0.000  0.018
   20  0.000  0.002  0.010  0.006  0.000  0.000  0.000  0.000  0.000  0.018
   21  0.000  0.002  0.010  0.006  0.000  0.000  0.000  0.000  0.000  0.018
   22  0.000  0.002  0.010  0.006  0.000  0.000  0.000  0.000  0.000  0.018
   23  0.001  0.003  0.000  0.010  0.000  0.000  0.000  0.000  0.000  0.014
   24  0.001  0.003  0.000  0.010  0.000  0.000  0.000  0.000  0.000  0.014
   25  0.001  0.003  0.000  0.010  0.000  0.000  0.000  0.000  0.000  0.014
   26  0.001  0.003  0.000  0.010  0.000  0.000  0.000  0.000  0.000  0.014
   27  0.000  0.002  0.010  0.006  0.000  0.000  0.000  0.000  0.000  0.018
   28  0.000  0.002  0.010  0.006  0.000  0.000  0.000  0.000  0.000  0.018
   29  0.001  0.003  0.000  0.010  0.000  0.000  0.000  0.000  0.000  0.014
   30  0.000  0.002  0.010  0.006  0.000  0.000  0.000  0.000  0.000  0.018
   31  0.000  0.002  0.010  0.006  0.000  0.000  0.000  0.000  0.000  0.018
   32  0.001  0.003  0.000  0.010  0.000  0.000  0.000  0.000  0.000  0.014
   33  0.001  0.003  0.000  0.010  0.000  0.000  0.000  0.000  0.000  0.014
   34  0.001  0.003  0.000  0.010  0.000  0.000  0.000  0.000  0.000  0.014
   35  0.001  0.003  0.000  0.010  0.000  0.000  0.000  0.000  0.000  0.014
   36  0.001  0.003  0.000  0.010  0.000  0.000  0.000  0.000  0.000  0.014
tot    0.008  0.062  0.123  0.186  0.003  0.079  0.001  0.236  0.001  0.699
 
band    61 # energy   -4.07560451 # occ.  1.00000000
 
ion      s     py     pz     px    dxy    dyz    dz2    dxz  x2-y2    tot
    1  0.000  0.000  0.004  0.000  0.000  0.000  0.000  0.000  0.000  0.004
    2  0.000  0.000  0.004  0.000  0.000  0.000  0.000  0.000  0.000  0.004
    3  0.000  0.000  0.004  0.000  0.000  0.000  0.000  0.000  0.000  0.004
    4  0.000  0.000  0.017  0.000  0.000  0.000  0.000  0.000  0.000  0.017
    5  0.000  0.000  0.004  0.000  0.000  0.000  0.000  0.000  0.000  0.004
    6  0.000  0.000  0.004  0.000  0.000  0.000  0.000  0.000  0.000  0.004
    7  0.000  0.000  0.017  0.000  0.000  0.000  0.000  0.000  0.000  0.017
    8  0.000  0.000  0.004  0.000  0.000  0.000  0.000  0.000  0.000  0.004
    9  0.000  0.000  0.017  0.000  0.000  0.000  0.000  0.000  0.000  0.017
   10  0.000  0.000  0.004  0.000  0.000  0.000  0.000  0.000  0.000  0.004
   11  0.000  0.000  0.017  0.000  0.000  0.000  0.000  0.000  0.000  0.017
   12  0.000  0.000  0.004  0.000  0.000  0.000  0.000  0.000  0.000  0.004
   13  0.000  0.005  0.000  0.015  0.000  0.000  0.000  0.000  0.000  0.020
   14  0.000  0.005  0.000  0.015  0.000  0.000  0.000  0.000  0.000  0.020
   15  0.000  0.005  0.000  0.015  0.000  0.000  0.000  0.000  0.000  0.020
   16  0.000  0.020  0.000  0.000  0.000  0.000  0.000  0.000  0.000  0.020
   17  0.000  0.020  0.000  0.000  0.000  0.000  0.000  0.000  0.000  0.020
   18  0.000  0.020  0.000  0.000  0.000  0.000  0.000  0.000  0.000  0.020
   19  0.000  0.020  0.000  0.000  0.000  0.000  0.000  0.000  0.000  0.020
   20  0.000  0.005  0.000  0.015  0.000  0.000  0.000  0.000  0.000  0.020
   21  0.000  0.005  0.000  0.015  0.000  0.000  0.000  0.000  0.000  0.020
   22  0.000  0.005  0.000  0.015  0.000  0.000  0.000  0.000  0.000  0.020
   23  0.000  0.005  0.000  0.015  0.000  0.000  0.000  0.000  0.000  0.020
   24  0.000  0.005  0.000  0.015  0.000  0.000  0.000  0.000  0.000  0.020
   25  0.000  0.005  0.000  0.015  0.000  0.000  0.000  0.000  0.000  0.020
   26  0.000  0.005  0.000  0.015  0.000  0.000  0.000  0.000  0.000  0.020
   27  0.000  0.005  0.000  0.015  0.000  0.000  0.000  0.000  0.000  0.020
   28  0.000  0.005  0.000  0.015  0.000  0.000  0.000  0.000  0.000  0.020
   29  0.000  0.020  0.000  0.000  0.000  0.000  0.000  0.000  0.000  0.020
   30  0.000  0.020  0.000  0.000  0.000  0.000  0.000  0.000  0.000  0.020
   31  0.000  0.020  0.000  0.000  0.000  0.000  0.000  0.000  0.000  0.020
   32  0.000  0.020  0.000  0.000  0.000  0.000  0.000  0.000  0.000  0.020
   33  0.000  0.005  0.000  0.015  0.000  0.000  0.000  0.000  0.000  0.020
   34  0.000  0.005  0.000  0.015  0.000  0.000  0.000  0.000  0.000  0.020
   35  0.000  0.005  0.000  0.015  0.000  0.000  0.000  0.000  0.000  0.020
   36  0.000  0.005  0.000  0.015  0.000  0.000  0.000  0.000  0.000  0.020
tot    0.000  0.236  0.102  0.236  0.003  0.000  0.000  0.000  0.003  0.581
 
band    62 # energy   -4.07488603 # occ.  1.00000000
 
ion      s     py     pz     px    dxy    dyz    dz2    dxz  x2-y2    tot
    1  0.000  0.000  0.013  0.000  0.000  0.000  0.000  0.000  0.000  0.013
    2  0.000  0.000  0.013  0.000  0.000  0.000  0.000  0.000  0.000  0.013
    3  0.000  0.000  0.013  0.000  0.000  0.000  0.000  0.000  0.000  0.013
    4  0.000  0.000  0.000  0.000  0.000  0.000  0.000  0.000  0.000  0.000
    5  0.000  0.000  0.013  0.000  0.000  0.000  0.000  0.000  0.000  0.013
    6  0.000  0.000  0.013  0.000  0.000  0.000  0.000  0.000  0.000  0.013
    7  0.000  0.000  0.000  0.000  0.000  0.000  0.000  0.000  0.000  0.000
    8  0.000  0.000  0.013  0.000  0.000  0.000  0.000  0.000  0.000  0.013
    9  0.000  0.000  0.000  0.000  0.000  0.000  0.000  0.000  0.000  0.000
   10  0.000  0.000  0.013  0.000  0.000  0.000  0.000  0.000  0.000  0.013
   11  0.000  0.000  0.000  0.000  0.000  0.000  0.000  0.000  0.000  0.000
   12  0.000  0.000  0.013  0.000  0.000  0.000  0.000  0.000  0.000  0.013
   13  0.000  0.015  0.000  0.005  0.000  0.000  0.000  0.000  0.000  0.020
   14  0.000  0.015  0.000  0.005  0.000  0.000  0.000  0.000  0.000  0.020
   15  0.000  0.015  0.000  0.005  0.000  0.000  0.000  0.000  0.000  0.020
   16  0.000  0.000  0.000  0.019  0.000  0.000  0.000  0.000  0.000  0.020
   17  0.000  0.000  0.000  0.019  0.000  0.000  0.000  0.000  0.000  0.020
   18  0.000  0.000  0.000  0.020  0.000  0.000  0.000  0.000  0.000  0.020
   19  0.000  0.000  0.000  0.020  0.000  0.000  0.000  0.000  0.000  0.020
   20  0.000  0.015  0.000  0.005  0.000  0.000  0.000  0.000  0.000  0.020
   21  0.000  0.015  0.000  0.005  0.000  0.000  0.000  0.000  0.000  0.020
   22  0.000  0.015  0.000  0.005  0.000  0.000  0.000  0.000  0.000  0.020
   23  0.000  0.015  0.000  0.005  0.000  0.000  0.000  0.000  0.000  0.020
   24  0.000  0.015  0.000  0.005  0.000  0.000  0.000  0.000  0.000  0.020
   25  0.000  0.015  0.000  0.005  0.000  0.000  0.000  0.000  0.000  0.020
   26  0.000  0.015  0.000  0.005  0.000  0.000  0.000  0.000  0.000  0.020
   27  0.000  0.015  0.000  0.005  0.000  0.000  0.000  0.000  0.000  0.020
   28  0.000  0.015  0.000  0.005  0.000  0.000  0.000  0.000  0.000  0.020
   29  0.000  0.000  0.000  0.019  0.000  0.000  0.000  0.000  0.000  0.020
   30  0.000  0.000  0.000  0.020  0.000  0.000  0.000  0.000  0.000  0.020
   31  0.000  0.000  0.000  0.020  0.000  0.000  0.000  0.000  0.000  0.020
   32  0.000  0.000  0.000  0.019  0.000  0.000  0.000  0.000  0.000  0.020
   33  0.000  0.015  0.000  0.005  0.000  0.000  0.000  0.000  0.000  0.020
   34  0.000  0.015  0.000  0.005  0.000  0.000  0.000  0.000  0.000  0.020
   35  0.000  0.015  0.000  0.005  0.000  0.000  0.000  0.000  0.000  0.020
   36  0.000  0.015  0.000  0.005  0.000  0.000  0.000  0.000  0.000  0.020
tot    0.000  0.236  0.102  0.236  0.003  0.000  0.000  0.000  0.003  0.581
 
band    63 # energy   -4.01570303 # occ.  1.00000000
 
ion      s     py     pz     px    dxy    dyz    dz2    dxz  x2-y2    tot
    1  0.000  0.000  0.000  0.000  0.000  0.002  0.000  0.023  0.000  0.025
    2  0.000  0.000  0.000  0.000  0.000  0.024  0.000  0.001  0.000  0.025
    3  0.000  0.000  0.000  0.000  0.000  0.024  0.000  0.001  0.000  0.025
    4  0.000  0.000  0.000  0.000  0.000  0.042  0.000  0.014  0.000  0.056
    5  0.000  0.000  0.000  0.000  0.000  0.024  0.000  0.001  0.000  0.025
    6  0.000  0.000  0.000  0.000  0.000  0.002  0.000  0.023  0.000  0.025
    7  0.000  0.000  0.000  0.000  0.000  0.042  0.000  0.014  0.000  0.056
    8  0.000  0.000  0.000  0.000  0.000  0.002  0.000  0.023  0.000  0.025
    9  0.000  0.000  0.000  0.000  0.000  0.042  0.000  0.014  0.000  0.056
   10  0.000  0.000  0.000  0.000  0.000  0.024  0.000  0.001  0.000  0.025
   11  0.000  0.000  0.000  0.000  0.000  0.042  0.000  0.014  0.000  0.056
   12  0.000  0.000  0.000  0.000  0.000  0.002  0.000  0.023  0.000  0.025
   13  0.000  0.000  0.000  0.000  0.000  0.000  0.000  0.000  0.000  0.001
   14  0.001  0.003  0.008  0.009  0.000  0.000  0.000  0.000  0.000  0.021
   15  0.001  0.003  0.008  0.009  0.000  0.000  0.000  0.000  0.000  0.021
   16  0.001  0.003  0.008  0.010  0.000  0.000  0.000  0.000  0.000  0.021
   17  0.001  0.003  0.008  0.010  0.000  0.000  0.000  0.000  0.000  0.021
   18  0.001  0.003  0.008  0.009  0.000  0.000  0.000  0.000  0.000  0.021
   19  0.001  0.003  0.008  0.009  0.000  0.000  0.000  0.000  0.000  0.021
   20  0.000  0.000  0.000  0.000  0.000  0.000  0.000  0.000  0.000  0.001
   21  0.001  0.003  0.008  0.009  0.000  0.000  0.000  0.000  0.000  0.021
   22  0.001  0.003  0.008  0.009  0.000  0.000  0.000  0.000  0.000  0.021
   23  0.000  0.000  0.000  0.000  0.000  0.000  0.000  0.000  0.000  0.001
   24  0.000  0.000  0.000  0.000  0.000  0.000  0.000  0.000  0.000  0.001
   25  0.001  0.004  0.008  0.009  0.000  0.000  0.000  0.000  0.000  0.021
   26  0.001  0.004  0.008  0.009  0.000  0.000  0.000  0.000  0.000  0.021
   27  0.000  0.000  0.000  0.000  0.000  0.000  0.000  0.000  0.000  0.001
   28  0.000  0.000  0.000  0.000  0.000  0.000  0.000  0.000  0.000  0.001
   29  0.001  0.003  0.008  0.010  0.000  0.000  0.000  0.000  0.000  0.021
   30  0.001  0.003  0.008  0.009  0.000  0.000  0.000  0.000  0.000  0.021
   31  0.001  0.003  0.008  0.009  0.000  0.000  0.000  0.000  0.000  0.021
   32  0.001  0.003  0.008  0.010  0.000  0.000  0.000  0.000  0.000  0.021
   33  0.001  0.004  0.008  0.009  0.000  0.000  0.000  0.000  0.000  0.021
   34  0.001  0.004  0.008  0.009  0.000  0.000  0.000  0.000  0.000  0.021
   35  0.000  0.000  0.000  0.000  0.000  0.000  0.000  0.000  0.000  0.001
   36  0.000  0.000  0.000  0.000  0.000  0.000  0.000  0.000  0.000  0.001
tot    0.010  0.050  0.123  0.147  0.002  0.275  0.000  0.157  0.005  0.768
 
band    64 # energy   -4.01547051 # occ.  1.00000000
 
ion      s     py     pz     px    dxy    dyz    dz2    dxz  x2-y2    tot
    1  0.000  0.000  0.000  0.000  0.000  0.043  0.000  0.002  0.000  0.046
    2  0.000  0.000  0.000  0.000  0.000  0.021  0.000  0.024  0.000  0.046
    3  0.000  0.000  0.000  0.000  0.000  0.021  0.000  0.024  0.000  0.046
    4  0.000  0.000  0.000  0.000  0.000  0.004  0.000  0.012  0.000  0.016
    5  0.000  0.000  0.000  0.000  0.000  0.021  0.000  0.024  0.000  0.046
    6  0.000  0.000  0.000  0.000  0.000  0.043  0.000  0.002  0.000  0.046
    7  0.000  0.000  0.000  0.000  0.000  0.004  0.000  0.012  0.000  0.016
    8  0.000  0.000  0.000  0.000  0.000  0.043  0.000  0.002  0.000  0.046
    9  0.000  0.000  0.000  0.000  0.000  0.004  0.000  0.012  0.000  0.016
   10  0.000  0.000  0.000  0.000  0.000  0.021  0.000  0.024  0.000  0.046
   11  0.000  0.000  0.000  0.000  0.000  0.004  0.000  0.012  0.000  0.016
   12  0.000  0.000  0.000  0.000  0.000  0.043  0.000  0.002  0.000  0.046
   13  0.001  0.004  0.010  0.012  0.000  0.000  0.000  0.000  0.000  0.028
   14  0.000  0.001  0.003  0.003  0.000  0.000  0.000  0.000  0.000  0.007
   15  0.000  0.001  0.003  0.003  0.000  0.000  0.000  0.000  0.000  0.007
   16  0.000  0.001  0.003  0.003  0.000  0.000  0.000  0.000  0.000  0.007
   17  0.000  0.001  0.003  0.003  0.000  0.000  0.000  0.000  0.000  0.007
   18  0.000  0.001  0.003  0.003  0.000  0.000  0.000  0.000  0.000  0.007
   19  0.000  0.001  0.003  0.003  0.000  0.000  0.000  0.000  0.000  0.007
   20  0.001  0.004  0.010  0.012  0.000  0.000  0.000  0.000  0.000  0.028
   21  0.000  0.001  0.003  0.003  0.000  0.000  0.000  0.000  0.000  0.007
   22  0.000  0.001  0.003  0.003  0.000  0.000  0.000  0.000  0.000  0.007
   23  0.001  0.004  0.010  0.012  0.000  0.000  0.000  0.000  0.000  0.028
   24  0.001  0.004  0.010  0.012  0.000  0.000  0.000  0.000  0.000  0.028
   25  0.000  0.001  0.003  0.004  0.000  0.000  0.000  0.000  0.000  0.007
   26  0.000  0.001  0.003  0.004  0.000  0.000  0.000  0.000  0.000  0.008
   27  0.001  0.004  0.010  0.012  0.000  0.000  0.000  0.000  0.000  0.028
   28  0.001  0.004  0.010  0.012  0.000  0.000  0.000  0.000  0.000  0.028
   29  0.000  0.001  0.003  0.003  0.000  0.000  0.000  0.000  0.000  0.007
   30  0.000  0.001  0.003  0.003  0.000  0.000  0.000  0.000  0.000  0.007
   31  0.000  0.001  0.003  0.003  0.000  0.000  0.000  0.000  0.000  0.007
   32  0.000  0.001  0.003  0.003  0.000  0.000  0.000  0.000  0.000  0.007
   33  0.000  0.001  0.003  0.004  0.000  0.000  0.000  0.000  0.000  0.008
   34  0.000  0.001  0.003  0.004  0.000  0.000  0.000  0.000  0.000  0.007
   35  0.001  0.004  0.010  0.012  0.000  0.000  0.000  0.000  0.000  0.028
   36  0.001  0.004  0.010  0.012  0.000  0.000  0.000  0.000  0.000  0.028
tot    0.010  0.050  0.123  0.147  0.002  0.275  0.000  0.157  0.005  0.768
 
band    65 # energy   -3.90627759 # occ.  1.00000000
 
ion      s     py     pz     px    dxy    dyz    dz2    dxz  x2-y2    tot
    1  0.000  0.000  0.000  0.000  0.000  0.002  0.000  0.025  0.000  0.027
    2  0.000  0.000  0.000  0.000  0.000  0.000  0.000  0.013  0.000  0.013
    3  0.000  0.000  0.000  0.000  0.000  0.013  0.000  0.014  0.000  0.027
    4  0.000  0.000  0.001  0.000  0.000  0.026  0.000  0.077  0.000  0.103
    5  0.000  0.000  0.000  0.000  0.000  0.000  0.000  0.013  0.000  0.013
    6  0.000  0.000  0.000  0.000  0.000  0.010  0.000  0.003  0.000  0.013
    7  0.000  0.000  0.000  0.000  0.000  0.010  0.000  0.029  0.000  0.038
    8  0.000  0.000  0.000  0.000  0.000  0.010  0.000  0.003  0.000  0.013
    9  0.000  0.000  0.000  0.000  0.000  0.010  0.000  0.029  0.000  0.038
   10  0.000  0.000  0.000  0.000  0.000  0.013  0.000  0.014  0.000  0.027
   11  0.000  0.000  0.001  0.000  0.000  0.026  0.000  0.077  0.000  0.103
   12  0.000  0.000  0.000  0.000  0.000  0.002  0.000  0.025  0.000  0.027
   13  0.000  0.007  0.001  0.022  0.000  0.000  0.000  0.000  0.000  0.032
   14  0.000  0.000  0.000  0.010  0.000  0.000  0.000  0.000  0.000  0.011
   15  0.000  0.000  0.000  0.010  0.000  0.000  0.000  0.000  0.000  0.011
   16  0.000  0.001  0.002  0.005  0.000  0.000  0.000  0.000  0.000  0.008
   17  0.000  0.001  0.002  0.005  0.000  0.000  0.000  0.000  0.000  0.008
   18  0.000  0.008  0.000  0.002  0.000  0.000  0.000  0.000  0.000  0.011
   19  0.000  0.008  0.000  0.002  0.000  0.000  0.000  0.000  0.000  0.011
   20  0.000  0.007  0.001  0.022  0.000  0.000  0.000  0.000  0.000  0.032
   21  0.000  0.000  0.000  0.010  0.000  0.000  0.000  0.000  0.000  0.011
   22  0.000  0.000  0.000  0.010  0.000  0.000  0.000  0.000  0.000  0.011
   23  0.000  0.002  0.008  0.005  0.000  0.000  0.000  0.000  0.000  0.015
   24  0.000  0.002  0.008  0.005  0.000  0.000  0.000  0.000  0.000  0.015
   25  0.000  0.006  0.002  0.000  0.000  0.000  0.000  0.000  0.000  0.008
   26  0.000  0.006  0.002  0.000  0.000  0.000  0.000  0.000  0.000  0.008
   27  0.000  0.007  0.001  0.022  0.000  0.000  0.000  0.000  0.000  0.032
   28  0.000  0.007  0.001  0.022  0.000  0.000  0.000  0.000  0.000  0.032
   29  0.000  0.001  0.002  0.005  0.000  0.000  0.000  0.000  0.000  0.008
   30  0.000  0.008  0.000  0.002  0.000  0.000  0.000  0.000  0.000  0.011
   31  0.000  0.008  0.000  0.002  0.000  0.000  0.000  0.000  0.000  0.011
   32  0.000  0.001  0.002  0.005  0.000  0.000  0.000  0.000  0.000  0.008
   33  0.000  0.006  0.002  0.000  0.000  0.000  0.000  0.000  0.000  0.008
   34  0.000  0.006  0.002  0.000  0.000  0.000  0.000  0.000  0.000  0.008
   35  0.000  0.002  0.008  0.005  0.000  0.000  0.000  0.000  0.000  0.015
   36  0.000  0.002  0.008  0.005  0.000  0.000  0.000  0.000  0.000  0.015
tot    0.003  0.099  0.060  0.179  0.002  0.123  0.000  0.324  0.001  0.791
 
band    66 # energy   -3.90597260 # occ.  1.00000000
 
ion      s     py     pz     px    dxy    dyz    dz2    dxz  x2-y2    tot
    1  0.000  0.000  0.000  0.000  0.000  0.025  0.000  0.052  0.000  0.078
    2  0.000  0.000  0.000  0.000  0.000  0.013  0.000  0.017  0.000  0.030
    3  0.000  0.000  0.000  0.000  0.000  0.014  0.000  0.063  0.000  0.078
    4  0.000  0.000  0.000  0.000  0.000  0.002  0.000  0.001  0.000  0.002
    5  0.000  0.000  0.000  0.000  0.000  0.013  0.000  0.017  0.000  0.030
    6  0.000  0.000  0.000  0.000  0.000  0.003  0.000  0.026  0.000  0.030
    7  0.000  0.000  0.000  0.000  0.000  0.003  0.000  0.001  0.000  0.004
    8  0.000  0.000  0.000  0.000  0.000  0.003  0.000  0.026  0.000  0.030
    9  0.000  0.000  0.000  0.000  0.000  0.003  0.000  0.001  0.000  0.004
   10  0.000  0.000  0.000  0.000  0.000  0.014  0.000  0.063  0.000  0.078
   11  0.000  0.000  0.000  0.000  0.000  0.002  0.000  0.001  0.000  0.002
   12  0.000  0.000  0.000  0.000  0.000  0.025  0.000  0.052  0.000  0.078
   13  0.000  0.003  0.000  0.001  0.000  0.000  0.000  0.000  0.000  0.004
   14  0.000  0.010  0.001  0.013  0.000  0.000  0.000  0.000  0.000  0.025
   15  0.000  0.010  0.001  0.013  0.000  0.000  0.000  0.000  0.000  0.025
   16  0.000  0.005  0.006  0.002  0.000  0.000  0.000  0.000  0.000  0.013
   17  0.000  0.005  0.006  0.002  0.000  0.000  0.000  0.000  0.000  0.013
   18  0.000  0.002  0.001  0.021  0.000  0.000  0.000  0.000  0.000  0.025
   19  0.000  0.002  0.001  0.021  0.000  0.000  0.000  0.000  0.000  0.025
   20  0.000  0.003  0.000  0.001  0.000  0.000  0.000  0.000  0.000  0.004
   21  0.000  0.010  0.001  0.013  0.000  0.000  0.000  0.000  0.000  0.025
   22  0.000  0.010  0.001  0.013  0.000  0.000  0.000  0.000  0.000  0.025
   23  0.000  0.004  0.000  0.001  0.000  0.000  0.000  0.000  0.000  0.006
   24  0.000  0.004  0.000  0.001  0.000  0.000  0.000  0.000  0.000  0.006
   25  0.000  0.000  0.006  0.006  0.000  0.000  0.000  0.000  0.000  0.013
   26  0.000  0.000  0.006  0.006  0.000  0.000  0.000  0.000  0.000  0.013
   27  0.000  0.003  0.000  0.001  0.000  0.000  0.000  0.000  0.000  0.004
   28  0.000  0.003  0.000  0.001  0.000  0.000  0.000  0.000  0.000  0.004
   29  0.000  0.005  0.006  0.002  0.000  0.000  0.000  0.000  0.000  0.013
   30  0.000  0.002  0.001  0.021  0.000  0.000  0.000  0.000  0.000  0.025
   31  0.000  0.002  0.001  0.021  0.000  0.000  0.000  0.000  0.000  0.025
   32  0.000  0.005  0.006  0.002  0.000  0.000  0.000  0.000  0.000  0.013
   33  0.000  0.000  0.006  0.006  0.000  0.000  0.000  0.000  0.000  0.013
   34  0.000  0.000  0.006  0.006  0.000  0.000  0.000  0.000  0.000  0.013
   35  0.000  0.004  0.000  0.001  0.000  0.000  0.000  0.000  0.000  0.006
   36  0.000  0.004  0.000  0.001  0.000  0.000  0.000  0.000  0.000  0.006
tot    0.003  0.099  0.060  0.179  0.002  0.123  0.000  0.324  0.001  0.791
 
band    67 # energy   -3.90564411 # occ.  1.00000000
 
ion      s     py     pz     px    dxy    dyz    dz2    dxz  x2-y2    tot
    1  0.000  0.000  0.000  0.000  0.000  0.010  0.000  0.003  0.000  0.013
    2  0.000  0.000  0.000  0.000  0.000  0.013  0.000  0.014  0.000  0.027
    3  0.000  0.000  0.000  0.000  0.000  0.000  0.000  0.013  0.000  0.013
    4  0.000  0.000  0.000  0.000  0.000  0.010  0.000  0.029  0.000  0.038
    5  0.000  0.000  0.000  0.000  0.000  0.013  0.000  0.014  0.000  0.027
    6  0.000  0.000  0.000  0.000  0.000  0.002  0.000  0.025  0.000  0.027
    7  0.000  0.000  0.001  0.000  0.000  0.026  0.000  0.077  0.000  0.103
    8  0.000  0.000  0.000  0.000  0.000  0.002  0.000  0.025  0.000  0.027
    9  0.000  0.000  0.001  0.000  0.000  0.026  0.000  0.077  0.000  0.103
   10  0.000  0.000  0.000  0.000  0.000  0.000  0.000  0.013  0.000  0.013
   11  0.000  0.000  0.000  0.000  0.000  0.010  0.000  0.029  0.000  0.038
   12  0.000  0.000  0.000  0.000  0.000  0.010  0.000  0.003  0.000  0.013
   13  0.000  0.002  0.008  0.005  0.000  0.000  0.000  0.000  0.000  0.015
   14  0.000  0.006  0.002  0.000  0.000  0.000  0.000  0.000  0.000  0.008
   15  0.000  0.006  0.002  0.000  0.000  0.000  0.000  0.000  0.000  0.008
   16  0.000  0.008  0.000  0.002  0.000  0.000  0.000  0.000  0.000  0.011
   17  0.000  0.008  0.000  0.002  0.000  0.000  0.000  0.000  0.000  0.011
   18  0.000  0.001  0.002  0.005  0.000  0.000  0.000  0.000  0.000  0.008
   19  0.000  0.001  0.002  0.005  0.000  0.000  0.000  0.000  0.000  0.008
   20  0.000  0.002  0.008  0.005  0.000  0.000  0.000  0.000  0.000  0.015
   21  0.000  0.006  0.002  0.000  0.000  0.000  0.000  0.000  0.000  0.008
   22  0.000  0.006  0.002  0.000  0.000  0.000  0.000  0.000  0.000  0.008
   23  0.000  0.007  0.001  0.022  0.000  0.000  0.000  0.000  0.000  0.032
   24  0.000  0.007  0.001  0.022  0.000  0.000  0.000  0.000  0.000  0.032
   25  0.000  0.000  0.000  0.010  0.000  0.000  0.000  0.000  0.000  0.011
   26  0.000  0.000  0.000  0.010  0.000  0.000  0.000  0.000  0.000  0.011
   27  0.000  0.002  0.008  0.005  0.000  0.000  0.000  0.000  0.000  0.015
   28  0.000  0.002  0.008  0.005  0.000  0.000  0.000  0.000  0.000  0.015
   29  0.000  0.008  0.000  0.002  0.000  0.000  0.000  0.000  0.000  0.011
   30  0.000  0.001  0.002  0.005  0.000  0.000  0.000  0.000  0.000  0.008
   31  0.000  0.001  0.002  0.005  0.000  0.000  0.000  0.000  0.000  0.008
   32  0.000  0.008  0.000  0.002  0.000  0.000  0.000  0.000  0.000  0.011
   33  0.000  0.000  0.000  0.010  0.000  0.000  0.000  0.000  0.000  0.011
   34  0.000  0.000  0.000  0.010  0.000  0.000  0.000  0.000  0.000  0.011
   35  0.000  0.007  0.001  0.022  0.000  0.000  0.000  0.000  0.000  0.032
   36  0.000  0.007  0.001  0.022  0.000  0.000  0.000  0.000  0.000  0.032
tot    0.003  0.099  0.060  0.179  0.002  0.123  0.000  0.324  0.001  0.791
 
band    68 # energy   -3.90533724 # occ.  1.00000000
 
ion      s     py     pz     px    dxy    dyz    dz2    dxz  x2-y2    tot
    1  0.000  0.000  0.000  0.000  0.000  0.003  0.000  0.026  0.000  0.030
    2  0.000  0.000  0.000  0.000  0.000  0.014  0.000  0.063  0.000  0.078
    3  0.000  0.000  0.000  0.000  0.000  0.013  0.000  0.017  0.000  0.030
    4  0.000  0.000  0.000  0.000  0.000  0.003  0.000  0.001  0.000  0.004
    5  0.000  0.000  0.000  0.000  0.000  0.014  0.000  0.063  0.000  0.078
    6  0.000  0.000  0.000  0.000  0.000  0.025  0.000  0.052  0.000  0.078
    7  0.000  0.000  0.000  0.000  0.000  0.002  0.000  0.001  0.000  0.002
    8  0.000  0.000  0.000  0.000  0.000  0.025  0.000  0.052  0.000  0.078
    9  0.000  0.000  0.000  0.000  0.000  0.002  0.000  0.001  0.000  0.002
   10  0.000  0.000  0.000  0.000  0.000  0.013  0.000  0.017  0.000  0.030
   11  0.000  0.000  0.000  0.000  0.000  0.003  0.000  0.001  0.000  0.004
   12  0.000  0.000  0.000  0.000  0.000  0.003  0.000  0.026  0.000  0.030
   13  0.000  0.004  0.000  0.001  0.000  0.000  0.000  0.000  0.000  0.006
   14  0.000  0.000  0.006  0.006  0.000  0.000  0.000  0.000  0.000  0.013
   15  0.000  0.000  0.006  0.006  0.000  0.000  0.000  0.000  0.000  0.013
   16  0.000  0.002  0.001  0.021  0.000  0.000  0.000  0.000  0.000  0.025
   17  0.000  0.002  0.001  0.021  0.000  0.000  0.000  0.000  0.000  0.025
   18  0.000  0.005  0.006  0.002  0.000  0.000  0.000  0.000  0.000  0.013
   19  0.000  0.005  0.006  0.002  0.000  0.000  0.000  0.000  0.000  0.013
   20  0.000  0.004  0.000  0.001  0.000  0.000  0.000  0.000  0.000  0.006
   21  0.000  0.000  0.006  0.006  0.000  0.000  0.000  0.000  0.000  0.013
   22  0.000  0.000  0.006  0.006  0.000  0.000  0.000  0.000  0.000  0.013
   23  0.000  0.003  0.000  0.001  0.000  0.000  0.000  0.000  0.000  0.004
   24  0.000  0.003  0.000  0.001  0.000  0.000  0.000  0.000  0.000  0.004
   25  0.000  0.010  0.001  0.013  0.000  0.000  0.000  0.000  0.000  0.025
   26  0.000  0.010  0.001  0.013  0.000  0.000  0.000  0.000  0.000  0.025
   27  0.000  0.004  0.000  0.001  0.000  0.000  0.000  0.000  0.000  0.006
   28  0.000  0.004  0.000  0.001  0.000  0.000  0.000  0.000  0.000  0.006
   29  0.000  0.002  0.001  0.021  0.000  0.000  0.000  0.000  0.000  0.025
   30  0.000  0.005  0.006  0.002  0.000  0.000  0.000  0.000  0.000  0.013
   31  0.000  0.005  0.006  0.002  0.000  0.000  0.000  0.000  0.000  0.013
   32  0.000  0.002  0.001  0.021  0.000  0.000  0.000  0.000  0.000  0.025
   33  0.000  0.010  0.001  0.013  0.000  0.000  0.000  0.000  0.000  0.025
   34  0.000  0.010  0.001  0.013  0.000  0.000  0.000  0.000  0.000  0.025
   35  0.000  0.003  0.000  0.001  0.000  0.000  0.000  0.000  0.000  0.004
   36  0.000  0.003  0.000  0.001  0.000  0.000  0.000  0.000  0.000  0.004
tot    0.003  0.099  0.060  0.179  0.002  0.123  0.000  0.324  0.001  0.791
 
band    69 # energy   -3.89161375 # occ.  1.00000000
 
ion      s     py     pz     px    dxy    dyz    dz2    dxz  x2-y2    tot
    1  0.000  0.000  0.000  0.000  0.000  0.031  0.000  0.010  0.000  0.041
    2  0.000  0.000  0.000  0.000  0.000  0.031  0.000  0.010  0.000  0.041
    3  0.000  0.000  0.000  0.000  0.000  0.031  0.000  0.010  0.000  0.041
    4  0.000  0.000  0.000  0.000  0.000  0.031  0.000  0.010  0.000  0.041
    5  0.000  0.000  0.000  0.000  0.000  0.031  0.000  0.010  0.000  0.041
    6  0.000  0.000  0.000  0.000  0.000  0.031  0.000  0.010  0.000  0.041
    7  0.000  0.000  0.000  0.000  0.000  0.030  0.000  0.010  0.000  0.041
    8  0.000  0.000  0.000  0.000  0.000  0.031  0.000  0.010  0.000  0.041
    9  0.000  0.000  0.000  0.000  0.000  0.030  0.000  0.010  0.000  0.041
   10  0.000  0.000  0.000  0.000  0.000  0.031  0.000  0.010  0.000  0.041
   11  0.000  0.000  0.000  0.000  0.000  0.031  0.000  0.010  0.000  0.041
   12  0.000  0.000  0.000  0.000  0.000  0.031  0.000  0.010  0.000  0.041
   13  0.000  0.010  0.000  0.003  0.000  0.000  0.000  0.000  0.000  0.014
   14  0.000  0.010  0.000  0.003  0.000  0.000  0.000  0.000  0.000  0.014
   15  0.000  0.010  0.000  0.003  0.000  0.000  0.000  0.000  0.000  0.014
   16  0.000  0.010  0.000  0.003  0.000  0.000  0.000  0.000  0.000  0.014
   17  0.000  0.010  0.000  0.003  0.000  0.000  0.000  0.000  0.000  0.014
   18  0.000  0.010  0.000  0.003  0.000  0.000  0.000  0.000  0.000  0.014
   19  0.000  0.010  0.000  0.003  0.000  0.000  0.000  0.000  0.000  0.014
   20  0.000  0.010  0.000  0.003  0.000  0.000  0.000  0.000  0.000  0.014
   21  0.000  0.010  0.000  0.003  0.000  0.000  0.000  0.000  0.000  0.014
   22  0.000  0.010  0.000  0.003  0.000  0.000  0.000  0.000  0.000  0.014
   23  0.000  0.010  0.000  0.003  0.000  0.000  0.000  0.000  0.000  0.014
   24  0.000  0.010  0.000  0.003  0.000  0.000  0.000  0.000  0.000  0.014
   25  0.000  0.010  0.000  0.003  0.000  0.000  0.000  0.000  0.000  0.014
   26  0.000  0.010  0.000  0.003  0.000  0.000  0.000  0.000  0.000  0.014
   27  0.000  0.010  0.000  0.003  0.000  0.000  0.000  0.000  0.000  0.014
   28  0.000  0.010  0.000  0.003  0.000  0.000  0.000  0.000  0.000  0.014
   29  0.000  0.010  0.000  0.003  0.000  0.000  0.000  0.000  0.000  0.014
   30  0.000  0.010  0.000  0.003  0.000  0.000  0.000  0.000  0.000  0.014
   31  0.000  0.010  0.000  0.003  0.000  0.000  0.000  0.000  0.000  0.014
   32  0.000  0.010  0.000  0.003  0.000  0.000  0.000  0.000  0.000  0.014
   33  0.000  0.010  0.000  0.003  0.000  0.000  0.000  0.000  0.000  0.014
   34  0.000  0.010  0.000  0.003  0.000  0.000  0.000  0.000  0.000  0.014
   35  0.000  0.010  0.000  0.003  0.000  0.000  0.000  0.000  0.000  0.014
   36  0.000  0.010  0.000  0.003  0.000  0.000  0.000  0.000  0.000  0.014
tot    0.000  0.246  0.000  0.082  0.000  0.374  0.000  0.125  0.001  0.827
 
band    70 # energy   -3.26127158 # occ.  1.00000000
 
ion      s     py     pz     px    dxy    dyz    dz2    dxz  x2-y2    tot
    1  0.000  0.000  0.000  0.000  0.039  0.000  0.000  0.000  0.013  0.052
    2  0.000  0.000  0.000  0.000  0.039  0.000  0.000  0.000  0.013  0.052
    3  0.000  0.000  0.000  0.000  0.039  0.000  0.000  0.000  0.013  0.052
    4  0.000  0.000  0.000  0.000  0.039  0.000  0.000  0.000  0.013  0.052
    5  0.000  0.000  0.000  0.000  0.039  0.000  0.000  0.000  0.013  0.052
    6  0.000  0.000  0.000  0.000  0.039  0.000  0.000  0.000  0.013  0.052
    7  0.000  0.000  0.000  0.000  0.039  0.000  0.000  0.000  0.013  0.052
    8  0.000  0.000  0.000  0.000  0.039  0.000  0.000  0.000  0.013  0.052
    9  0.000  0.000  0.000  0.000  0.039  0.000  0.000  0.000  0.013  0.052
   10  0.000  0.000  0.000  0.000  0.039  0.000  0.000  0.000  0.013  0.052
   11  0.000  0.000  0.000  0.000  0.039  0.000  0.000  0.000  0.013  0.052
   12  0.000  0.000  0.000  0.000  0.039  0.000  0.000  0.000  0.013  0.052
   13  0.000  0.002  0.000  0.007  0.000  0.000  0.000  0.000  0.000  0.009
   14  0.000  0.002  0.000  0.007  0.000  0.000  0.000  0.000  0.000  0.009
   15  0.000  0.002  0.000  0.007  0.000  0.000  0.000  0.000  0.000  0.009
   16  0.000  0.002  0.000  0.007  0.000  0.000  0.000  0.000  0.000  0.009
   17  0.000  0.002  0.000  0.007  0.000  0.000  0.000  0.000  0.000  0.009
   18  0.000  0.002  0.000  0.007  0.000  0.000  0.000  0.000  0.000  0.009
   19  0.000  0.002  0.000  0.007  0.000  0.000  0.000  0.000  0.000  0.009
   20  0.000  0.002  0.000  0.007  0.000  0.000  0.000  0.000  0.000  0.009
   21  0.000  0.002  0.000  0.007  0.000  0.000  0.000  0.000  0.000  0.009
   22  0.000  0.002  0.000  0.007  0.000  0.000  0.000  0.000  0.000  0.009
   23  0.000  0.002  0.000  0.007  0.000  0.000  0.000  0.000  0.000  0.009
   24  0.000  0.002  0.000  0.007  0.000  0.000  0.000  0.000  0.000  0.009
   25  0.000  0.002  0.000  0.007  0.000  0.000  0.000  0.000  0.000  0.009
   26  0.000  0.002  0.000  0.007  0.000  0.000  0.000  0.000  0.000  0.009
   27  0.000  0.002  0.000  0.007  0.000  0.000  0.000  0.000  0.000  0.009
   28  0.000  0.002  0.000  0.007  0.000  0.000  0.000  0.000  0.000  0.009
   29  0.000  0.002  0.000  0.007  0.000  0.000  0.000  0.000  0.000  0.009
   30  0.000  0.002  0.000  0.007  0.000  0.000  0.000  0.000  0.000  0.009
   31  0.000  0.002  0.000  0.007  0.000  0.000  0.000  0.000  0.000  0.009
   32  0.000  0.002  0.000  0.007  0.000  0.000  0.000  0.000  0.000  0.009
   33  0.000  0.002  0.000  0.007  0.000  0.000  0.000  0.000  0.000  0.009
   34  0.000  0.002  0.000  0.007  0.000  0.000  0.000  0.000  0.000  0.009
   35  0.000  0.002  0.000  0.007  0.000  0.000  0.000  0.000  0.000  0.009
   36  0.000  0.002  0.000  0.007  0.000  0.000  0.000  0.000  0.000  0.009
tot    0.000  0.054  0.000  0.163  0.463  0.003  0.000  0.010  0.155  0.848
 
band    71 # energy   -3.26007594 # occ.  1.00000000
 
ion      s     py     pz     px    dxy    dyz    dz2    dxz  x2-y2    tot
    1  0.000  0.000  0.000  0.000  0.013  0.000  0.000  0.000  0.039  0.052
    2  0.000  0.000  0.000  0.000  0.013  0.000  0.000  0.000  0.039  0.052
    3  0.000  0.000  0.000  0.000  0.013  0.000  0.000  0.000  0.039  0.052
    4  0.000  0.000  0.000  0.000  0.013  0.000  0.000  0.000  0.039  0.052
    5  0.000  0.000  0.000  0.000  0.013  0.000  0.000  0.000  0.039  0.052
    6  0.000  0.000  0.000  0.000  0.013  0.000  0.000  0.000  0.039  0.052
    7  0.000  0.000  0.000  0.000  0.013  0.000  0.000  0.000  0.039  0.052
    8  0.000  0.000  0.000  0.000  0.013  0.000  0.000  0.000  0.039  0.052
    9  0.000  0.000  0.000  0.000  0.013  0.000  0.000  0.000  0.039  0.052
   10  0.000  0.000  0.000  0.000  0.013  0.000  0.000  0.000  0.039  0.052
   11  0.000  0.000  0.000  0.000  0.013  0.000  0.000  0.000  0.039  0.052
   12  0.000  0.000  0.000  0.000  0.013  0.000  0.000  0.000  0.039  0.052
   13  0.000  0.007  0.000  0.002  0.000  0.000  0.000  0.000  0.000  0.009
   14  0.000  0.007  0.000  0.002  0.000  0.000  0.000  0.000  0.000  0.009
   15  0.000  0.007  0.000  0.002  0.000  0.000  0.000  0.000  0.000  0.009
   16  0.000  0.007  0.000  0.002  0.000  0.000  0.000  0.000  0.000  0.009
   17  0.000  0.007  0.000  0.002  0.000  0.000  0.000  0.000  0.000  0.009
   18  0.000  0.007  0.000  0.002  0.000  0.000  0.000  0.000  0.000  0.009
   19  0.000  0.007  0.000  0.002  0.000  0.000  0.000  0.000  0.000  0.009
   20  0.000  0.007  0.000  0.002  0.000  0.000  0.000  0.000  0.000  0.009
   21  0.000  0.007  0.000  0.002  0.000  0.000  0.000  0.000  0.000  0.009
   22  0.000  0.007  0.000  0.002  0.000  0.000  0.000  0.000  0.000  0.009
   23  0.000  0.007  0.000  0.002  0.000  0.000  0.000  0.000  0.000  0.009
   24  0.000  0.007  0.000  0.002  0.000  0.000  0.000  0.000  0.000  0.009
   25  0.000  0.007  0.000  0.002  0.000  0.000  0.000  0.000  0.000  0.009
   26  0.000  0.007  0.000  0.002  0.000  0.000  0.000  0.000  0.000  0.009
   27  0.000  0.007  0.000  0.002  0.000  0.000  0.000  0.000  0.000  0.009
   28  0.000  0.007  0.000  0.002  0.000  0.000  0.000  0.000  0.000  0.009
   29  0.000  0.007  0.000  0.002  0.000  0.000  0.000  0.000  0.000  0.009
   30  0.000  0.007  0.000  0.002  0.000  0.000  0.000  0.000  0.000  0.009
   31  0.000  0.007  0.000  0.002  0.000  0.000  0.000  0.000  0.000  0.009
   32  0.000  0.007  0.000  0.002  0.000  0.000  0.000  0.000  0.000  0.009
   33  0.000  0.007  0.000  0.002  0.000  0.000  0.000  0.000  0.000  0.009
   34  0.000  0.007  0.000  0.002  0.000  0.000  0.000  0.000  0.000  0.009
   35  0.000  0.007  0.000  0.002  0.000  0.000  0.000  0.000  0.000  0.009
   36  0.000  0.007  0.000  0.002  0.000  0.000  0.000  0.000  0.000  0.009
tot    0.000  0.163  0.000  0.054  0.155  0.010  0.000  0.003  0.464  0.849
 
band    72 # energy   -3.23370670 # occ.  1.00000000
 
ion      s     py     pz     px    dxy    dyz    dz2    dxz  x2-y2    tot
    1  0.000  0.000  0.000  0.000  0.000  0.065  0.000  0.022  0.000  0.087
    2  0.000  0.000  0.000  0.000  0.000  0.000  0.000  0.000  0.000  0.000
    3  0.000  0.000  0.000  0.000  0.000  0.065  0.000  0.022  0.000  0.087
    4  0.000  0.000  0.000  0.000  0.000  0.065  0.000  0.022  0.000  0.087
    5  0.000  0.000  0.000  0.000  0.000  0.000  0.000  0.000  0.000  0.000
    6  0.000  0.000  0.000  0.000  0.000  0.000  0.000  0.000  0.000  0.000
    7  0.000  0.000  0.000  0.000  0.000  0.000  0.000  0.000  0.000  0.000
    8  0.000  0.000  0.000  0.000  0.000  0.000  0.000  0.000  0.000  0.000
    9  0.000  0.000  0.000  0.000  0.000  0.000  0.000  0.000  0.000  0.000
   10  0.000  0.000  0.000  0.000  0.000  0.065  0.000  0.022  0.000  0.087
   11  0.000  0.000  0.000  0.000  0.000  0.065  0.000  0.022  0.000  0.087
   12  0.000  0.000  0.000  0.000  0.000  0.065  0.000  0.022  0.000  0.087
   13  0.000  0.002  0.000  0.001  0.000  0.000  0.000  0.000  0.000  0.003
   14  0.000  0.002  0.000  0.001  0.000  0.000  0.000  0.000  0.000  0.003
   15  0.000  0.002  0.000  0.001  0.000  0.000  0.000  0.000  0.000  0.003
   16  0.000  0.017  0.000  0.006  0.000  0.000  0.000  0.000  0.000  0.024
   17  0.000  0.017  0.000  0.006  0.000  0.000  0.000  0.000  0.000  0.024
   18  0.000  0.002  0.000  0.001  0.000  0.000  0.000  0.000  0.000  0.003
   19  0.000  0.002  0.000  0.001  0.000  0.000  0.000  0.000  0.000  0.003
   20  0.000  0.002  0.000  0.001  0.000  0.000  0.000  0.000  0.000  0.003
   21  0.000  0.002  0.000  0.001  0.000  0.000  0.000  0.000  0.000  0.003
   22  0.000  0.002  0.000  0.001  0.000  0.000  0.000  0.000  0.000  0.003
   23  0.000  0.017  0.000  0.006  0.000  0.000  0.000  0.000  0.000  0.024
   24  0.000  0.017  0.000  0.006  0.000  0.000  0.000  0.000  0.000  0.024
   25  0.000  0.017  0.000  0.006  0.000  0.000  0.000  0.000  0.000  0.024
   26  0.000  0.017  0.000  0.006  0.000  0.000  0.000  0.000  0.000  0.024
   27  0.000  0.002  0.000  0.001  0.000  0.000  0.000  0.000  0.000  0.003
   28  0.000  0.002  0.000  0.001  0.000  0.000  0.000  0.000  0.000  0.003
   29  0.000  0.017  0.000  0.006  0.000  0.000  0.000  0.000  0.000  0.024
   30  0.000  0.002  0.000  0.001  0.000  0.000  0.000  0.000  0.000  0.003
   31  0.000  0.002  0.000  0.001  0.000  0.000  0.000  0.000  0.000  0.003
   32  0.000  0.017  0.000  0.006  0.000  0.000  0.000  0.000  0.000  0.024
   33  0.000  0.017  0.000  0.006  0.000  0.000  0.000  0.000  0.000  0.024
   34  0.000  0.017  0.000  0.006  0.000  0.000  0.000  0.000  0.000  0.024
   35  0.000  0.017  0.000  0.006  0.000  0.000  0.000  0.000  0.000  0.024
   36  0.000  0.017  0.000  0.006  0.000  0.000  0.000  0.000  0.000  0.024
tot    0.000  0.232  0.000  0.077  0.002  0.398  0.000  0.133  0.005  0.846
 
band    73 # energy   -3.23246042 # occ.  1.00000000
 
ion      s     py     pz     px    dxy    dyz    dz2    dxz  x2-y2    tot
    1  0.000  0.000  0.000  0.000  0.000  0.000  0.000  0.000  0.000  0.000
    2  0.000  0.000  0.000  0.000  0.000  0.065  0.000  0.022  0.000  0.087
    3  0.000  0.000  0.000  0.000  0.000  0.000  0.000  0.000  0.000  0.000
    4  0.000  0.000  0.000  0.000  0.000  0.000  0.000  0.000  0.000  0.000
    5  0.000  0.000  0.000  0.000  0.000  0.065  0.000  0.022  0.000  0.087
    6  0.000  0.000  0.000  0.000  0.000  0.065  0.000  0.022  0.000  0.087
    7  0.000  0.000  0.000  0.000  0.000  0.065  0.000  0.022  0.000  0.087
    8  0.000  0.000  0.000  0.000  0.000  0.065  0.000  0.022  0.000  0.087
    9  0.000  0.000  0.000  0.000  0.000  0.065  0.000  0.022  0.000  0.087
   10  0.000  0.000  0.000  0.000  0.000  0.000  0.000  0.000  0.000  0.000
   11  0.000  0.000  0.000  0.000  0.000  0.000  0.000  0.000  0.000  0.000
   12  0.000  0.000  0.000  0.000  0.000  0.000  0.000  0.000  0.000  0.000
   13  0.000  0.017  0.000  0.006  0.000  0.000  0.000  0.000  0.000  0.024
   14  0.000  0.017  0.000  0.006  0.000  0.000  0.000  0.000  0.000  0.024
   15  0.000  0.017  0.000  0.006  0.000  0.000  0.000  0.000  0.000  0.024
   16  0.000  0.002  0.000  0.001  0.000  0.000  0.000  0.000  0.000  0.003
   17  0.000  0.002  0.000  0.001  0.000  0.000  0.000  0.000  0.000  0.003
   18  0.000  0.017  0.000  0.006  0.000  0.000  0.000  0.000  0.000  0.024
   19  0.000  0.017  0.000  0.006  0.000  0.000  0.000  0.000  0.000  0.024
   20  0.000  0.017  0.000  0.006  0.000  0.000  0.000  0.000  0.000  0.024
   21  0.000  0.017  0.000  0.006  0.000  0.000  0.000  0.000  0.000  0.024
   22  0.000  0.017  0.000  0.006  0.000  0.000  0.000  0.000  0.000  0.024
   23  0.000  0.002  0.000  0.001  0.000  0.000  0.000  0.000  0.000  0.003
   24  0.000  0.002  0.000  0.001  0.000  0.000  0.000  0.000  0.000  0.003
   25  0.000  0.002  0.000  0.001  0.000  0.000  0.000  0.000  0.000  0.003
   26  0.000  0.002  0.000  0.001  0.000  0.000  0.000  0.000  0.000  0.003
   27  0.000  0.017  0.000  0.006  0.000  0.000  0.000  0.000  0.000  0.024
   28  0.000  0.017  0.000  0.006  0.000  0.000  0.000  0.000  0.000  0.024
   29  0.000  0.002  0.000  0.001  0.000  0.000  0.000  0.000  0.000  0.003
   30  0.000  0.017  0.000  0.006  0.000  0.000  0.000  0.000  0.000  0.024
   31  0.000  0.017  0.000  0.006  0.000  0.000  0.000  0.000  0.000  0.024
   32  0.000  0.002  0.000  0.001  0.000  0.000  0.000  0.000  0.000  0.003
   33  0.000  0.002  0.000  0.001  0.000  0.000  0.000  0.000  0.000  0.003
   34  0.000  0.002  0.000  0.001  0.000  0.000  0.000  0.000  0.000  0.003
   35  0.000  0.002  0.000  0.001  0.000  0.000  0.000  0.000  0.000  0.003
   36  0.000  0.002  0.000  0.001  0.000  0.000  0.000  0.000  0.000  0.003
tot    0.000  0.232  0.000  0.077  0.002  0.398  0.000  0.133  0.005  0.846
 
band    74 # energy   -3.22955897 # occ.  1.00000000
 
ion      s     py     pz     px    dxy    dyz    dz2    dxz  x2-y2    tot
    1  0.000  0.000  0.000  0.000  0.000  0.000  0.000  0.028  0.000  0.028
    2  0.000  0.000  0.000  0.000  0.000  0.021  0.000  0.007  0.000  0.028
    3  0.000  0.000  0.000  0.000  0.000  0.021  0.000  0.007  0.000  0.028
    4  0.000  0.000  0.000  0.000  0.000  0.021  0.000  0.007  0.000  0.029
    5  0.000  0.000  0.000  0.000  0.000  0.021  0.000  0.007  0.000  0.028
    6  0.000  0.000  0.000  0.000  0.000  0.000  0.000  0.028  0.000  0.028
    7  0.000  0.000  0.000  0.000  0.000  0.021  0.000  0.007  0.000  0.029
    8  0.000  0.000  0.000  0.000  0.000  0.000  0.000  0.028  0.000  0.028
    9  0.000  0.000  0.000  0.000  0.000  0.021  0.000  0.007  0.000  0.029
   10  0.000  0.000  0.000  0.000  0.000  0.021  0.000  0.007  0.000  0.028
   11  0.000  0.000  0.000  0.000  0.000  0.021  0.000  0.007  0.000  0.029
   12  0.000  0.000  0.000  0.000  0.000  0.000  0.000  0.028  0.000  0.028
   13  0.000  0.000  0.000  0.000  0.000  0.000  0.000  0.000  0.000  0.000
   14  0.002  0.000  0.025  0.000  0.000  0.000  0.000  0.000  0.000  0.027
   15  0.002  0.000  0.025  0.000  0.000  0.000  0.000  0.000  0.000  0.027
   16  0.002  0.000  0.025  0.000  0.000  0.000  0.000  0.000  0.000  0.027
   17  0.002  0.000  0.025  0.000  0.000  0.000  0.000  0.000  0.000  0.027
   18  0.002  0.000  0.025  0.000  0.000  0.000  0.000  0.000  0.000  0.027
   19  0.002  0.000  0.025  0.000  0.000  0.000  0.000  0.000  0.000  0.027
   20  0.000  0.000  0.000  0.000  0.000  0.000  0.000  0.000  0.000  0.000
   21  0.002  0.000  0.025  0.000  0.000  0.000  0.000  0.000  0.000  0.027
   22  0.002  0.000  0.025  0.000  0.000  0.000  0.000  0.000  0.000  0.027
   23  0.000  0.000  0.000  0.000  0.000  0.000  0.000  0.000  0.000  0.000
   24  0.000  0.000  0.000  0.000  0.000  0.000  0.000  0.000  0.000  0.000
   25  0.002  0.000  0.025  0.000  0.000  0.000  0.000  0.000  0.000  0.027
   26  0.002  0.000  0.025  0.000  0.000  0.000  0.000  0.000  0.000  0.027
   27  0.000  0.000  0.000  0.000  0.000  0.000  0.000  0.000  0.000  0.000
   28  0.000  0.000  0.000  0.000  0.000  0.000  0.000  0.000  0.000  0.000
   29  0.002  0.000  0.025  0.000  0.000  0.000  0.000  0.000  0.000  0.027
   30  0.002  0.000  0.025  0.000  0.000  0.000  0.000  0.000  0.000  0.027
   31  0.002  0.000  0.025  0.000  0.000  0.000  0.000  0.000  0.000  0.027
   32  0.002  0.000  0.025  0.000  0.000  0.000  0.000  0.000  0.000  0.027
   33  0.002  0.000  0.025  0.000  0.000  0.000  0.000  0.000  0.000  0.027
   34  0.002  0.000  0.025  0.000  0.000  0.000  0.000  0.000  0.000  0.027
   35  0.000  0.000  0.000  0.000  0.000  0.000  0.000  0.000  0.000  0.000
   36  0.000  0.000  0.000  0.000  0.000  0.000  0.000  0.000  0.000  0.000
tot    0.034  0.000  0.398  0.000  0.000  0.171  0.000  0.170  0.000  0.772
 
band    75 # energy   -3.22938885 # occ.  1.00000000
 
ion      s     py     pz     px    dxy    dyz    dz2    dxz  x2-y2    tot
    1  0.000  0.000  0.000  0.000  0.000  0.028  0.000  0.000  0.000  0.028
    2  0.000  0.000  0.000  0.000  0.000  0.007  0.000  0.021  0.000  0.028
    3  0.000  0.000  0.000  0.000  0.000  0.007  0.000  0.021  0.000  0.028
    4  0.000  0.000  0.000  0.000  0.000  0.007  0.000  0.021  0.000  0.028
    5  0.000  0.000  0.000  0.000  0.000  0.007  0.000  0.021  0.000  0.028
    6  0.000  0.000  0.000  0.000  0.000  0.028  0.000  0.000  0.000  0.028
    7  0.000  0.000  0.000  0.000  0.000  0.007  0.000  0.021  0.000  0.028
    8  0.000  0.000  0.000  0.000  0.000  0.028  0.000  0.000  0.000  0.028
    9  0.000  0.000  0.000  0.000  0.000  0.007  0.000  0.021  0.000  0.028
   10  0.000  0.000  0.000  0.000  0.000  0.007  0.000  0.021  0.000  0.028
   11  0.000  0.000  0.000  0.000  0.000  0.007  0.000  0.021  0.000  0.028
   12  0.000  0.000  0.000  0.000  0.000  0.028  0.000  0.000  0.000  0.028
   13  0.003  0.000  0.033  0.000  0.000  0.000  0.000  0.000  0.000  0.036
   14  0.001  0.000  0.008  0.000  0.000  0.000  0.000  0.000  0.000  0.009
   15  0.001  0.000  0.008  0.000  0.000  0.000  0.000  0.000  0.000  0.009
   16  0.001  0.000  0.008  0.000  0.000  0.000  0.000  0.000  0.000  0.009
   17  0.001  0.000  0.008  0.000  0.000  0.000  0.000  0.000  0.000  0.009
   18  0.001  0.000  0.008  0.000  0.000  0.000  0.000  0.000  0.000  0.009
   19  0.001  0.000  0.008  0.000  0.000  0.000  0.000  0.000  0.000  0.009
   20  0.003  0.000  0.033  0.000  0.000  0.000  0.000  0.000  0.000  0.036
   21  0.001  0.000  0.008  0.000  0.000  0.000  0.000  0.000  0.000  0.009
   22  0.001  0.000  0.008  0.000  0.000  0.000  0.000  0.000  0.000  0.009
   23  0.003  0.000  0.033  0.000  0.000  0.000  0.000  0.000  0.000  0.036
   24  0.003  0.000  0.033  0.000  0.000  0.000  0.000  0.000  0.000  0.036
   25  0.001  0.000  0.008  0.000  0.000  0.000  0.000  0.000  0.000  0.009
   26  0.001  0.000  0.008  0.000  0.000  0.000  0.000  0.000  0.000  0.009
   27  0.003  0.000  0.033  0.000  0.000  0.000  0.000  0.000  0.000  0.036
   28  0.003  0.000  0.033  0.000  0.000  0.000  0.000  0.000  0.000  0.036
   29  0.001  0.000  0.008  0.000  0.000  0.000  0.000  0.000  0.000  0.009
   30  0.001  0.000  0.008  0.000  0.000  0.000  0.000  0.000  0.000  0.009
   31  0.001  0.000  0.008  0.000  0.000  0.000  0.000  0.000  0.000  0.009
   32  0.001  0.000  0.008  0.000  0.000  0.000  0.000  0.000  0.000  0.009
   33  0.001  0.000  0.008  0.000  0.000  0.000  0.000  0.000  0.000  0.009
   34  0.001  0.000  0.008  0.000  0.000  0.000  0.000  0.000  0.000  0.009
   35  0.003  0.000  0.033  0.000  0.000  0.000  0.000  0.000  0.000  0.036
   36  0.003  0.000  0.033  0.000  0.000  0.000  0.000  0.000  0.000  0.036
tot    0.034  0.000  0.398  0.000  0.000  0.171  0.000  0.170  0.000  0.772
 
band    76 # energy   -2.99055612 # occ.  1.00000000
 
ion      s     py     pz     px    dxy    dyz    dz2    dxz  x2-y2    tot
    1  0.000  0.000  0.002  0.000  0.000  0.005  0.000  0.014  0.000  0.020
    2  0.000  0.000  0.002  0.000  0.000  0.005  0.000  0.014  0.000  0.020
    3  0.000  0.000  0.002  0.000  0.000  0.005  0.000  0.014  0.000  0.020
    4  0.000  0.000  0.002  0.000  0.000  0.005  0.000  0.014  0.000  0.020
    5  0.000  0.000  0.002  0.000  0.000  0.005  0.000  0.014  0.000  0.020
    6  0.000  0.000  0.002  0.000  0.000  0.005  0.000  0.014  0.000  0.020
    7  0.000  0.000  0.002  0.000  0.000  0.005  0.000  0.014  0.000  0.020
    8  0.000  0.000  0.002  0.000  0.000  0.005  0.000  0.014  0.000  0.020
    9  0.000  0.000  0.002  0.000  0.000  0.005  0.000  0.014  0.000  0.020
   10  0.000  0.000  0.002  0.000  0.000  0.005  0.000  0.014  0.000  0.020
   11  0.000  0.000  0.002  0.000  0.000  0.005  0.000  0.014  0.000  0.020
   12  0.000  0.000  0.002  0.000  0.000  0.005  0.000  0.014  0.000  0.020
   13  0.001  0.001  0.016  0.002  0.000  0.000  0.000  0.000  0.000  0.019
   14  0.001  0.001  0.016  0.002  0.000  0.000  0.000  0.000  0.000  0.019
   15  0.001  0.001  0.016  0.002  0.000  0.000  0.000  0.000  0.000  0.019
   16  0.001  0.001  0.016  0.002  0.000  0.000  0.000  0.000  0.000  0.019
   17  0.001  0.001  0.016  0.002  0.000  0.000  0.000  0.000  0.000  0.019
   18  0.001  0.001  0.016  0.002  0.000  0.000  0.000  0.000  0.000  0.019
   19  0.001  0.001  0.016  0.002  0.000  0.000  0.000  0.000  0.000  0.019
   20  0.001  0.001  0.016  0.002  0.000  0.000  0.000  0.000  0.000  0.019
   21  0.001  0.001  0.016  0.002  0.000  0.000  0.000  0.000  0.000  0.019
   22  0.001  0.001  0.016  0.002  0.000  0.000  0.000  0.000  0.000  0.019
   23  0.001  0.001  0.016  0.002  0.000  0.000  0.000  0.000  0.000  0.019
   24  0.001  0.001  0.016  0.002  0.000  0.000  0.000  0.000  0.000  0.019
   25  0.001  0.001  0.016  0.002  0.000  0.000  0.000  0.000  0.000  0.019
   26  0.001  0.001  0.016  0.002  0.000  0.000  0.000  0.000  0.000  0.019
   27  0.001  0.001  0.016  0.002  0.000  0.000  0.000  0.000  0.000  0.019
   28  0.001  0.001  0.016  0.002  0.000  0.000  0.000  0.000  0.000  0.019
   29  0.001  0.001  0.016  0.002  0.000  0.000  0.000  0.000  0.000  0.019
   30  0.001  0.001  0.016  0.002  0.000  0.000  0.000  0.000  0.000  0.019
   31  0.001  0.001  0.016  0.002  0.000  0.000  0.000  0.000  0.000  0.019
   32  0.001  0.001  0.016  0.002  0.000  0.000  0.000  0.000  0.000  0.019
   33  0.001  0.001  0.016  0.002  0.000  0.000  0.000  0.000  0.000  0.019
   34  0.001  0.001  0.016  0.002  0.000  0.000  0.000  0.000  0.000  0.019
   35  0.001  0.001  0.016  0.002  0.000  0.000  0.000  0.000  0.000  0.019
   36  0.001  0.001  0.016  0.002  0.000  0.000  0.000  0.000  0.000  0.019
tot    0.019  0.014  0.408  0.042  0.000  0.055  0.000  0.166  0.000  0.705
 
band    77 # energy   -2.93949796 # occ.  1.00000000
 
ion      s     py     pz     px    dxy    dyz    dz2    dxz  x2-y2    tot
    1  0.000  0.000  0.005  0.000  0.000  0.000  0.000  0.000  0.000  0.005
    2  0.000  0.000  0.005  0.000  0.000  0.000  0.000  0.000  0.000  0.005
    3  0.000  0.000  0.005  0.000  0.000  0.000  0.000  0.000  0.000  0.005
    4  0.000  0.000  0.005  0.000  0.000  0.000  0.000  0.000  0.000  0.005
    5  0.000  0.000  0.005  0.000  0.000  0.000  0.000  0.000  0.000  0.005
    6  0.000  0.000  0.005  0.000  0.000  0.000  0.000  0.000  0.000  0.005
    7  0.000  0.000  0.005  0.000  0.000  0.000  0.000  0.000  0.000  0.005
    8  0.000  0.000  0.005  0.000  0.000  0.000  0.000  0.000  0.000  0.005
    9  0.000  0.000  0.005  0.000  0.000  0.000  0.000  0.000  0.000  0.005
   10  0.000  0.000  0.005  0.000  0.000  0.000  0.000  0.000  0.000  0.005
   11  0.000  0.000  0.005  0.000  0.000  0.000  0.000  0.000  0.000  0.005
   12  0.000  0.000  0.005  0.000  0.000  0.000  0.000  0.000  0.000  0.005
   13  0.000  0.000  0.020  0.000  0.000  0.000  0.000  0.000  0.000  0.020
   14  0.000  0.000  0.020  0.000  0.000  0.000  0.000  0.000  0.000  0.020
   15  0.000  0.000  0.020  0.000  0.000  0.000  0.000  0.000  0.000  0.020
   16  0.000  0.000  0.020  0.000  0.000  0.000  0.000  0.000  0.000  0.020
   17  0.000  0.000  0.020  0.000  0.000  0.000  0.000  0.000  0.000  0.020
   18  0.000  0.000  0.020  0.000  0.000  0.000  0.000  0.000  0.000  0.020
   19  0.000  0.000  0.020  0.000  0.000  0.000  0.000  0.000  0.000  0.020
   20  0.000  0.000  0.020  0.000  0.000  0.000  0.000  0.000  0.000  0.020
   21  0.000  0.000  0.020  0.000  0.000  0.000  0.000  0.000  0.000  0.020
   22  0.000  0.000  0.020  0.000  0.000  0.000  0.000  0.000  0.000  0.020
   23  0.000  0.000  0.020  0.000  0.000  0.000  0.000  0.000  0.000  0.020
   24  0.000  0.000  0.020  0.000  0.000  0.000  0.000  0.000  0.000  0.020
   25  0.000  0.000  0.020  0.000  0.000  0.000  0.000  0.000  0.000  0.020
   26  0.000  0.000  0.020  0.000  0.000  0.000  0.000  0.000  0.000  0.020
   27  0.000  0.000  0.020  0.000  0.000  0.000  0.000  0.000  0.000  0.020
   28  0.000  0.000  0.020  0.000  0.000  0.000  0.000  0.000  0.000  0.020
   29  0.000  0.000  0.020  0.000  0.000  0.000  0.000  0.000  0.000  0.020
   30  0.000  0.000  0.020  0.000  0.000  0.000  0.000  0.000  0.000  0.020
   31  0.000  0.000  0.020  0.000  0.000  0.000  0.000  0.000  0.000  0.020
   32  0.000  0.000  0.020  0.000  0.000  0.000  0.000  0.000  0.000  0.020
   33  0.000  0.000  0.020  0.000  0.000  0.000  0.000  0.000  0.000  0.020
   34  0.000  0.000  0.020  0.000  0.000  0.000  0.000  0.000  0.000  0.020
   35  0.000  0.000  0.020  0.000  0.000  0.000  0.000  0.000  0.000  0.020
   36  0.000  0.000  0.020  0.000  0.000  0.000  0.000  0.000  0.000  0.020
tot    0.001  0.000  0.546  0.000  0.000  0.000  0.000  0.000  0.000  0.546
 
band    78 # energy   -2.84423249 # occ.  1.00000000
 
ion      s     py     pz     px    dxy    dyz    dz2    dxz  x2-y2    tot
    1  0.001  0.000  0.000  0.003  0.008  0.000  0.017  0.000  0.011  0.040
    2  0.001  0.003  0.000  0.000  0.018  0.000  0.017  0.000  0.001  0.040
    3  0.001  0.003  0.000  0.000  0.018  0.000  0.017  0.000  0.001  0.040
    4  0.000  0.005  0.000  0.002  0.002  0.000  0.000  0.000  0.006  0.015
    5  0.001  0.003  0.000  0.000  0.018  0.000  0.017  0.000  0.001  0.040
    6  0.001  0.000  0.000  0.003  0.008  0.000  0.017  0.000  0.011  0.040
    7  0.000  0.005  0.000  0.002  0.002  0.000  0.000  0.000  0.006  0.015
    8  0.001  0.000  0.000  0.003  0.008  0.000  0.017  0.000  0.011  0.040
    9  0.000  0.005  0.000  0.002  0.002  0.000  0.000  0.000  0.006  0.015
   10  0.001  0.003  0.000  0.000  0.018  0.000  0.017  0.000  0.001  0.040
   11  0.000  0.005  0.000  0.002  0.002  0.000  0.000  0.000  0.006  0.015
   12  0.001  0.000  0.000  0.003  0.008  0.000  0.017  0.000  0.011  0.040
   13  0.000  0.000  0.000  0.000  0.000  0.000  0.000  0.000  0.000  0.001
   14  0.000  0.004  0.000  0.016  0.000  0.000  0.000  0.000  0.000  0.021
   15  0.000  0.004  0.000  0.016  0.000  0.000  0.000  0.000  0.000  0.021
   16  0.000  0.006  0.000  0.014  0.000  0.000  0.000  0.000  0.000  0.021
   17  0.000  0.006  0.000  0.014  0.000  0.000  0.000  0.000  0.000  0.021
   18  0.000  0.006  0.000  0.014  0.000  0.000  0.000  0.000  0.000  0.021
   19  0.000  0.006  0.000  0.014  0.000  0.000  0.000  0.000  0.000  0.021
   20  0.000  0.000  0.000  0.000  0.000  0.000  0.000  0.000  0.000  0.001
   21  0.000  0.004  0.000  0.016  0.000  0.000  0.000  0.000  0.000  0.021
   22  0.000  0.004  0.000  0.016  0.000  0.000  0.000  0.000  0.000  0.021
   23  0.000  0.000  0.000  0.000  0.000  0.000  0.000  0.000  0.000  0.001
   24  0.000  0.000  0.000  0.000  0.000  0.000  0.000  0.000  0.000  0.001
   25  0.000  0.004  0.000  0.016  0.000  0.000  0.000  0.000  0.000  0.021
   26  0.000  0.004  0.000  0.016  0.000  0.000  0.000  0.000  0.000  0.021
   27  0.000  0.000  0.000  0.000  0.000  0.000  0.000  0.000  0.000  0.001
   28  0.000  0.000  0.000  0.000  0.000  0.000  0.000  0.000  0.000  0.001
   29  0.000  0.006  0.000  0.014  0.000  0.000  0.000  0.000  0.000  0.021
   30  0.000  0.006  0.000  0.014  0.000  0.000  0.000  0.000  0.000  0.021
   31  0.000  0.006  0.000  0.014  0.000  0.000  0.000  0.000  0.000  0.021
   32  0.000  0.006  0.000  0.014  0.000  0.000  0.000  0.000  0.000  0.021
   33  0.000  0.004  0.000  0.016  0.000  0.000  0.000  0.000  0.000  0.021
   34  0.000  0.004  0.000  0.016  0.000  0.000  0.000  0.000  0.000  0.021
   35  0.000  0.000  0.000  0.000  0.000  0.000  0.000  0.000  0.000  0.001
   36  0.000  0.000  0.000  0.000  0.000  0.000  0.000  0.000  0.000  0.001
tot    0.010  0.117  0.001  0.267  0.114  0.002  0.133  0.004  0.077  0.724
 
band    79 # energy   -2.84399715 # occ.  1.00000000
 
ion      s     py     pz     px    dxy    dyz    dz2    dxz  x2-y2    tot
    1  0.000  0.005  0.000  0.000  0.011  0.000  0.006  0.000  0.001  0.023
    2  0.000  0.002  0.000  0.003  0.001  0.000  0.006  0.000  0.011  0.023
    3  0.000  0.002  0.000  0.003  0.001  0.000  0.006  0.000  0.011  0.023
    4  0.001  0.001  0.000  0.002  0.017  0.000  0.022  0.000  0.006  0.048
    5  0.000  0.002  0.000  0.003  0.001  0.000  0.006  0.000  0.011  0.023
    6  0.000  0.005  0.000  0.000  0.011  0.000  0.006  0.000  0.001  0.023
    7  0.001  0.001  0.000  0.002  0.017  0.000  0.022  0.000  0.006  0.048
    8  0.000  0.005  0.000  0.000  0.011  0.000  0.006  0.000  0.001  0.023
    9  0.001  0.001  0.000  0.002  0.017  0.000  0.022  0.000  0.006  0.048
   10  0.000  0.002  0.000  0.003  0.001  0.000  0.006  0.000  0.011  0.023
   11  0.001  0.001  0.000  0.002  0.017  0.000  0.022  0.000  0.006  0.048
   12  0.000  0.005  0.000  0.000  0.011  0.000  0.006  0.000  0.001  0.023
   13  0.000  0.007  0.000  0.020  0.000  0.000  0.000  0.000  0.000  0.028
   14  0.000  0.003  0.000  0.004  0.000  0.000  0.000  0.000  0.000  0.008
   15  0.000  0.003  0.000  0.004  0.000  0.000  0.000  0.000  0.000  0.008
   16  0.000  0.001  0.000  0.006  0.000  0.000  0.000  0.000  0.000  0.008
   17  0.000  0.001  0.000  0.006  0.000  0.000  0.000  0.000  0.000  0.008
   18  0.000  0.001  0.000  0.006  0.000  0.000  0.000  0.000  0.000  0.008
   19  0.000  0.001  0.000  0.006  0.000  0.000  0.000  0.000  0.000  0.008
   20  0.000  0.007  0.000  0.020  0.000  0.000  0.000  0.000  0.000  0.028
   21  0.000  0.003  0.000  0.004  0.000  0.000  0.000  0.000  0.000  0.008
   22  0.000  0.003  0.000  0.004  0.000  0.000  0.000  0.000  0.000  0.008
   23  0.000  0.007  0.000  0.020  0.000  0.000  0.000  0.000  0.000  0.028
   24  0.000  0.007  0.000  0.020  0.000  0.000  0.000  0.000  0.000  0.028
   25  0.000  0.003  0.000  0.004  0.000  0.000  0.000  0.000  0.000  0.008
   26  0.000  0.003  0.000  0.004  0.000  0.000  0.000  0.000  0.000  0.008
   27  0.000  0.007  0.000  0.020  0.000  0.000  0.000  0.000  0.000  0.028
   28  0.000  0.007  0.000  0.020  0.000  0.000  0.000  0.000  0.000  0.028
   29  0.000  0.001  0.000  0.006  0.000  0.000  0.000  0.000  0.000  0.008
   30  0.000  0.001  0.000  0.006  0.000  0.000  0.000  0.000  0.000  0.008
   31  0.000  0.001  0.000  0.006  0.000  0.000  0.000  0.000  0.000  0.008
   32  0.000  0.001  0.000  0.006  0.000  0.000  0.000  0.000  0.000  0.008
   33  0.000  0.003  0.000  0.004  0.000  0.000  0.000  0.000  0.000  0.008
   34  0.000  0.003  0.000  0.004  0.000  0.000  0.000  0.000  0.000  0.008
   35  0.000  0.007  0.000  0.020  0.000  0.000  0.000  0.000  0.000  0.028
   36  0.000  0.007  0.000  0.020  0.000  0.000  0.000  0.000  0.000  0.028
tot    0.010  0.117  0.001  0.267  0.114  0.002  0.133  0.004  0.077  0.724
 
band    80 # energy   -2.76215917 # occ.  1.00000000
 
ion      s     py     pz     px    dxy    dyz    dz2    dxz  x2-y2    tot
    1  0.000  0.000  0.005  0.000  0.000  0.009  0.000  0.005  0.000  0.018
    2  0.000  0.000  0.006  0.000  0.000  0.000  0.000  0.000  0.000  0.006
    3  0.000  0.000  0.005  0.000  0.000  0.012  0.000  0.002  0.000  0.018
    4  0.000  0.000  0.000  0.000  0.000  0.041  0.000  0.014  0.000  0.054
    5  0.000  0.000  0.006  0.000  0.000  0.000  0.000  0.000  0.000  0.006
    6  0.000  0.000  0.006  0.000  0.000  0.000  0.000  0.000  0.000  0.006
    7  0.000  0.000  0.000  0.000  0.000  0.000  0.000  0.000  0.000  0.000
    8  0.000  0.000  0.006  0.000  0.000  0.000  0.000  0.000  0.000  0.006
    9  0.000  0.000  0.000  0.000  0.000  0.000  0.000  0.000  0.000  0.000
   10  0.000  0.000  0.005  0.000  0.000  0.012  0.000  0.002  0.000  0.018
   11  0.000  0.000  0.000  0.000  0.000  0.041  0.000  0.014  0.000  0.054
   12  0.000  0.000  0.005  0.000  0.000  0.009  0.000  0.005  0.000  0.018
   13  0.000  0.011  0.000  0.004  0.000  0.000  0.000  0.000  0.000  0.015
   14  0.000  0.008  0.000  0.001  0.000  0.000  0.000  0.000  0.000  0.009
   15  0.000  0.008  0.000  0.001  0.000  0.000  0.000  0.000  0.000  0.009
   16  0.002  0.000  0.041  0.000  0.000  0.000  0.000  0.000  0.000  0.044
   17  0.002  0.000  0.041  0.000  0.000  0.000  0.000  0.000  0.000  0.044
   18  0.000  0.000  0.000  0.008  0.000  0.000  0.000  0.000  0.000  0.009
   19  0.000  0.000  0.000  0.008  0.000  0.000  0.000  0.000  0.000  0.009
   20  0.000  0.011  0.000  0.004  0.000  0.000  0.000  0.000  0.000  0.015
   21  0.000  0.008  0.000  0.001  0.000  0.000  0.000  0.000  0.000  0.009
   22  0.000  0.008  0.000  0.001  0.000  0.000  0.000  0.000  0.000  0.009
   23  0.000  0.001  0.000  0.000  0.000  0.000  0.000  0.000  0.000  0.001
   24  0.000  0.001  0.000  0.000  0.000  0.000  0.000  0.000  0.000  0.001
   25  0.002  0.000  0.041  0.000  0.000  0.000  0.000  0.000  0.000  0.044
   26  0.002  0.000  0.041  0.000  0.000  0.000  0.000  0.000  0.000  0.044
   27  0.000  0.011  0.000  0.004  0.000  0.000  0.000  0.000  0.000  0.015
   28  0.000  0.011  0.000  0.004  0.000  0.000  0.000  0.000  0.000  0.015
   29  0.002  0.000  0.041  0.000  0.000  0.000  0.000  0.000  0.000  0.044
   30  0.000  0.000  0.000  0.008  0.000  0.000  0.000  0.000  0.000  0.009
   31  0.000  0.000  0.000  0.008  0.000  0.000  0.000  0.000  0.000  0.009
   32  0.002  0.000  0.041  0.000  0.000  0.000  0.000  0.000  0.000  0.044
   33  0.002  0.000  0.041  0.000  0.000  0.000  0.000  0.000  0.000  0.044
   34  0.002  0.000  0.041  0.000  0.000  0.000  0.000  0.000  0.000  0.044
   35  0.000  0.001  0.000  0.000  0.000  0.000  0.000  0.000  0.000  0.001
   36  0.000  0.001  0.000  0.000  0.000  0.000  0.000  0.000  0.000  0.001
tot    0.019  0.083  0.371  0.053  0.000  0.123  0.000  0.043  0.000  0.692
 
band    81 # energy   -2.76204687 # occ.  1.00000000
 
ion      s     py     pz     px    dxy    dyz    dz2    dxz  x2-y2    tot
    1  0.000  0.000  0.002  0.000  0.000  0.032  0.000  0.009  0.000  0.042
    2  0.000  0.000  0.002  0.000  0.000  0.000  0.000  0.000  0.000  0.002
    3  0.000  0.000  0.002  0.000  0.000  0.029  0.000  0.012  0.000  0.042
    4  0.000  0.000  0.006  0.000  0.000  0.000  0.000  0.000  0.000  0.006
    5  0.000  0.000  0.002  0.000  0.000  0.000  0.000  0.000  0.000  0.002
    6  0.000  0.000  0.002  0.000  0.000  0.000  0.000  0.000  0.000  0.002
    7  0.000  0.000  0.008  0.000  0.000  0.000  0.000  0.000  0.000  0.008
    8  0.000  0.000  0.002  0.000  0.000  0.000  0.000  0.000  0.000  0.002
    9  0.000  0.000  0.008  0.000  0.000  0.000  0.000  0.000  0.000  0.008
   10  0.000  0.000  0.002  0.000  0.000  0.029  0.000  0.012  0.000  0.042
   11  0.000  0.000  0.006  0.000  0.000  0.000  0.000  0.000  0.000  0.006
   12  0.000  0.000  0.002  0.000  0.000  0.032  0.000  0.009  0.000  0.042
   13  0.000  0.002  0.000  0.004  0.000  0.000  0.000  0.000  0.000  0.007
   14  0.000  0.005  0.000  0.008  0.000  0.000  0.000  0.000  0.000  0.013
   15  0.000  0.005  0.000  0.008  0.000  0.000  0.000  0.000  0.000  0.013
   16  0.001  0.001  0.014  0.000  0.000  0.000  0.000  0.000  0.000  0.015
   17  0.001  0.001  0.014  0.000  0.000  0.000  0.000  0.000  0.000  0.015
   18  0.000  0.012  0.000  0.000  0.000  0.000  0.000  0.000  0.000  0.013
   19  0.000  0.012  0.000  0.000  0.000  0.000  0.000  0.000  0.000  0.013
   20  0.000  0.002  0.000  0.004  0.000  0.000  0.000  0.000  0.000  0.007
   21  0.000  0.005  0.000  0.008  0.000  0.000  0.000  0.000  0.000  0.013
   22  0.000  0.005  0.000  0.008  0.000  0.000  0.000  0.000  0.000  0.013
   23  0.003  0.000  0.055  0.000  0.000  0.000  0.000  0.000  0.000  0.058
   24  0.003  0.000  0.055  0.000  0.000  0.000  0.000  0.000  0.000  0.058
   25  0.001  0.001  0.014  0.000  0.000  0.000  0.000  0.000  0.000  0.016
   26  0.001  0.001  0.014  0.000  0.000  0.000  0.000  0.000  0.000  0.016
   27  0.000  0.002  0.000  0.004  0.000  0.000  0.000  0.000  0.000  0.007
   28  0.000  0.002  0.000  0.004  0.000  0.000  0.000  0.000  0.000  0.007
   29  0.001  0.001  0.014  0.000  0.000  0.000  0.000  0.000  0.000  0.015
   30  0.000  0.012  0.000  0.000  0.000  0.000  0.000  0.000  0.000  0.013
   31  0.000  0.012  0.000  0.000  0.000  0.000  0.000  0.000  0.000  0.013
   32  0.001  0.001  0.014  0.000  0.000  0.000  0.000  0.000  0.000  0.015
   33  0.001  0.001  0.014  0.000  0.000  0.000  0.000  0.000  0.000  0.016
   34  0.001  0.001  0.014  0.000  0.000  0.000  0.000  0.000  0.000  0.016
   35  0.003  0.000  0.055  0.000  0.000  0.000  0.000  0.000  0.000  0.058
   36  0.003  0.000  0.055  0.000  0.000  0.000  0.000  0.000  0.000  0.058
tot    0.019  0.083  0.371  0.053  0.000  0.123  0.000  0.043  0.000  0.692
 
band    82 # energy   -2.76155070 # occ.  1.00000000
 
ion      s     py     pz     px    dxy    dyz    dz2    dxz  x2-y2    tot
    1  0.000  0.000  0.006  0.000  0.000  0.000  0.000  0.000  0.000  0.006
    2  0.000  0.000  0.005  0.000  0.000  0.012  0.000  0.002  0.000  0.018
    3  0.000  0.000  0.006  0.000  0.000  0.000  0.000  0.000  0.000  0.006
    4  0.000  0.000  0.000  0.000  0.000  0.000  0.000  0.000  0.000  0.000
    5  0.000  0.000  0.005  0.000  0.000  0.012  0.000  0.002  0.000  0.018
    6  0.000  0.000  0.005  0.000  0.000  0.009  0.000  0.005  0.000  0.018
    7  0.000  0.000  0.000  0.000  0.000  0.041  0.000  0.014  0.000  0.054
    8  0.000  0.000  0.005  0.000  0.000  0.009  0.000  0.005  0.000  0.018
    9  0.000  0.000  0.000  0.000  0.000  0.041  0.000  0.014  0.000  0.054
   10  0.000  0.000  0.006  0.000  0.000  0.000  0.000  0.000  0.000  0.006
   11  0.000  0.000  0.000  0.000  0.000  0.000  0.000  0.000  0.000  0.000
   12  0.000  0.000  0.006  0.000  0.000  0.000  0.000  0.000  0.000  0.006
   13  0.000  0.001  0.000  0.000  0.000  0.000  0.000  0.000  0.000  0.001
   14  0.002  0.000  0.041  0.000  0.000  0.000  0.000  0.000  0.000  0.044
   15  0.002  0.000  0.041  0.000  0.000  0.000  0.000  0.000  0.000  0.044
   16  0.000  0.000  0.000  0.008  0.000  0.000  0.000  0.000  0.000  0.009
   17  0.000  0.000  0.000  0.008  0.000  0.000  0.000  0.000  0.000  0.009
   18  0.002  0.000  0.041  0.000  0.000  0.000  0.000  0.000  0.000  0.044
   19  0.002  0.000  0.041  0.000  0.000  0.000  0.000  0.000  0.000  0.044
   20  0.000  0.001  0.000  0.000  0.000  0.000  0.000  0.000  0.000  0.001
   21  0.002  0.000  0.041  0.000  0.000  0.000  0.000  0.000  0.000  0.044
   22  0.002  0.000  0.041  0.000  0.000  0.000  0.000  0.000  0.000  0.044
   23  0.000  0.011  0.000  0.004  0.000  0.000  0.000  0.000  0.000  0.015
   24  0.000  0.011  0.000  0.004  0.000  0.000  0.000  0.000  0.000  0.015
   25  0.000  0.008  0.000  0.001  0.000  0.000  0.000  0.000  0.000  0.009
   26  0.000  0.008  0.000  0.001  0.000  0.000  0.000  0.000  0.000  0.009
   27  0.000  0.001  0.000  0.000  0.000  0.000  0.000  0.000  0.000  0.001
   28  0.000  0.001  0.000  0.000  0.000  0.000  0.000  0.000  0.000  0.001
   29  0.000  0.000  0.000  0.008  0.000  0.000  0.000  0.000  0.000  0.009
   30  0.002  0.000  0.041  0.000  0.000  0.000  0.000  0.000  0.000  0.044
   31  0.002  0.000  0.041  0.000  0.000  0.000  0.000  0.000  0.000  0.044
   32  0.000  0.000  0.000  0.008  0.000  0.000  0.000  0.000  0.000  0.009
   33  0.000  0.008  0.000  0.001  0.000  0.000  0.000  0.000  0.000  0.009
   34  0.000  0.008  0.000  0.001  0.000  0.000  0.000  0.000  0.000  0.009
   35  0.000  0.011  0.000  0.004  0.000  0.000  0.000  0.000  0.000  0.015
   36  0.000  0.011  0.000  0.004  0.000  0.000  0.000  0.000  0.000  0.015
tot    0.019  0.083  0.371  0.053  0.000  0.123  0.000  0.043  0.000  0.692
 
band    83 # energy   -2.76143585 # occ.  1.00000000
 
ion      s     py     pz     px    dxy    dyz    dz2    dxz  x2-y2    tot
    1  0.000  0.000  0.002  0.000  0.000  0.000  0.000  0.000  0.000  0.002
    2  0.000  0.000  0.002  0.000  0.000  0.029  0.000  0.012  0.000  0.042
    3  0.000  0.000  0.002  0.000  0.000  0.000  0.000  0.000  0.000  0.002
    4  0.000  0.000  0.008  0.000  0.000  0.000  0.000  0.000  0.000  0.008
    5  0.000  0.000  0.002  0.000  0.000  0.029  0.000  0.012  0.000  0.042
    6  0.000  0.000  0.002  0.000  0.000  0.032  0.000  0.009  0.000  0.042
    7  0.000  0.000  0.006  0.000  0.000  0.000  0.000  0.000  0.000  0.006
    8  0.000  0.000  0.002  0.000  0.000  0.032  0.000  0.009  0.000  0.042
    9  0.000  0.000  0.006  0.000  0.000  0.000  0.000  0.000  0.000  0.006
   10  0.000  0.000  0.002  0.000  0.000  0.000  0.000  0.000  0.000  0.002
   11  0.000  0.000  0.008  0.000  0.000  0.000  0.000  0.000  0.000  0.008
   12  0.000  0.000  0.002  0.000  0.000  0.000  0.000  0.000  0.000  0.002
   13  0.003  0.000  0.055  0.000  0.000  0.000  0.000  0.000  0.000  0.058
   14  0.001  0.001  0.014  0.000  0.000  0.000  0.000  0.000  0.000  0.015
   15  0.001  0.001  0.014  0.000  0.000  0.000  0.000  0.000  0.000  0.015
   16  0.000  0.012  0.000  0.000  0.000  0.000  0.000  0.000  0.000  0.013
   17  0.000  0.012  0.000  0.000  0.000  0.000  0.000  0.000  0.000  0.013
   18  0.001  0.001  0.014  0.000  0.000  0.000  0.000  0.000  0.000  0.016
   19  0.001  0.001  0.014  0.000  0.000  0.000  0.000  0.000  0.000  0.016
   20  0.003  0.000  0.055  0.000  0.000  0.000  0.000  0.000  0.000  0.058
   21  0.001  0.001  0.014  0.000  0.000  0.000  0.000  0.000  0.000  0.015
   22  0.001  0.001  0.014  0.000  0.000  0.000  0.000  0.000  0.000  0.015
   23  0.000  0.001  0.000  0.005  0.000  0.000  0.000  0.000  0.000  0.007
   24  0.000  0.001  0.000  0.005  0.000  0.000  0.000  0.000  0.000  0.007
   25  0.000  0.005  0.000  0.008  0.000  0.000  0.000  0.000  0.000  0.013
   26  0.000  0.005  0.000  0.008  0.000  0.000  0.000  0.000  0.000  0.013
   27  0.003  0.000  0.055  0.000  0.000  0.000  0.000  0.000  0.000  0.058
   28  0.003  0.000  0.055  0.000  0.000  0.000  0.000  0.000  0.000  0.058
   29  0.000  0.012  0.000  0.000  0.000  0.000  0.000  0.000  0.000  0.013
   30  0.001  0.001  0.014  0.000  0.000  0.000  0.000  0.000  0.000  0.016
   31  0.001  0.001  0.014  0.000  0.000  0.000  0.000  0.000  0.000  0.016
   32  0.000  0.012  0.000  0.000  0.000  0.000  0.000  0.000  0.000  0.013
   33  0.000  0.005  0.000  0.008  0.000  0.000  0.000  0.000  0.000  0.013
   34  0.000  0.005  0.000  0.008  0.000  0.000  0.000  0.000  0.000  0.013
   35  0.000  0.001  0.000  0.005  0.000  0.000  0.000  0.000  0.000  0.007
   36  0.000  0.001  0.000  0.005  0.000  0.000  0.000  0.000  0.000  0.007
tot    0.019  0.083  0.371  0.053  0.000  0.123  0.000  0.043  0.000  0.692
 
band    84 # energy   -2.60588269 # occ.  1.00000000
 
ion      s     py     pz     px    dxy    dyz    dz2    dxz  x2-y2    tot
    1  0.001  0.003  0.000  0.007  0.004  0.000  0.001  0.000  0.001  0.017
    2  0.000  0.001  0.000  0.000  0.008  0.000  0.011  0.000  0.000  0.021
    3  0.001  0.010  0.000  0.000  0.004  0.000  0.001  0.000  0.001  0.017
    4  0.005  0.002  0.000  0.006  0.015  0.000  0.002  0.000  0.005  0.036
    5  0.000  0.001  0.000  0.000  0.008  0.000  0.011  0.000  0.000  0.021
    6  0.000  0.000  0.000  0.001  0.001  0.000  0.011  0.000  0.008  0.021
    7  0.001  0.000  0.000  0.001  0.014  0.000  0.046  0.000  0.005  0.066
    8  0.000  0.000  0.000  0.001  0.001  0.000  0.011  0.000  0.008  0.021
    9  0.001  0.000  0.000  0.001  0.014  0.000  0.046  0.000  0.005  0.066
   10  0.001  0.010  0.000  0.000  0.004  0.000  0.001  0.000  0.001  0.017
   11  0.005  0.002  0.000  0.006  0.015  0.000  0.002  0.000  0.005  0.036
   12  0.001  0.003  0.000  0.007  0.004  0.000  0.001  0.000  0.001  0.017
   13  0.000  0.004  0.001  0.011  0.000  0.000  0.000  0.000  0.000  0.016
   14  0.000  0.003  0.000  0.010  0.000  0.000  0.000  0.000  0.000  0.013
   15  0.000  0.003  0.000  0.010  0.000  0.000  0.000  0.000  0.000  0.013
   16  0.000  0.001  0.001  0.007  0.000  0.000  0.000  0.000  0.000  0.010
   17  0.000  0.001  0.001  0.007  0.000  0.000  0.000  0.000  0.000  0.010
   18  0.000  0.012  0.000  0.000  0.000  0.000  0.000  0.000  0.001  0.013
   19  0.000  0.012  0.000  0.000  0.000  0.000  0.000  0.000  0.001  0.013
   20  0.000  0.004  0.001  0.011  0.000  0.000  0.000  0.000  0.000  0.016
   21  0.000  0.003  0.000  0.010  0.000  0.000  0.000  0.000  0.000  0.013
   22  0.000  0.003  0.000  0.010  0.000  0.000  0.000  0.000  0.000  0.013
   23  0.001  0.004  0.006  0.011  0.000  0.000  0.000  0.000  0.000  0.022
   24  0.001  0.004  0.006  0.011  0.000  0.000  0.000  0.000  0.000  0.022
   25  0.000  0.008  0.001  0.000  0.000  0.000  0.000  0.000  0.000  0.010
   26  0.000  0.008  0.001  0.000  0.000  0.000  0.000  0.000  0.000  0.010
   27  0.000  0.004  0.001  0.011  0.000  0.000  0.000  0.000  0.000  0.016
   28  0.000  0.004  0.001  0.011  0.000  0.000  0.000  0.000  0.000  0.016
   29  0.000  0.001  0.001  0.007  0.000  0.000  0.000  0.000  0.000  0.010
   30  0.000  0.012  0.000  0.000  0.000  0.000  0.000  0.000  0.001  0.013
   31  0.000  0.012  0.000  0.000  0.000  0.000  0.000  0.000  0.001  0.013
   32  0.000  0.001  0.001  0.007  0.000  0.000  0.000  0.000  0.000  0.010
   33  0.000  0.008  0.001  0.000  0.000  0.000  0.000  0.000  0.000  0.010
   34  0.000  0.008  0.001  0.000  0.000  0.000  0.000  0.000  0.000  0.010
   35  0.001  0.004  0.006  0.011  0.000  0.000  0.000  0.000  0.000  0.022
   36  0.001  0.004  0.006  0.011  0.000  0.000  0.000  0.000  0.000  0.022
tot    0.024  0.156  0.041  0.185  0.096  0.001  0.144  0.003  0.046  0.696
 
band    85 # energy   -2.60575936 # occ.  1.00000000
 
ion      s     py     pz     px    dxy    dyz    dz2    dxz  x2-y2    tot
    1  0.000  0.000  0.000  0.001  0.001  0.000  0.011  0.000  0.008  0.021
    2  0.001  0.010  0.000  0.000  0.004  0.000  0.001  0.000  0.001  0.017
    3  0.000  0.001  0.000  0.000  0.008  0.000  0.011  0.000  0.000  0.021
    4  0.001  0.000  0.000  0.001  0.014  0.000  0.046  0.000  0.005  0.066
    5  0.001  0.010  0.000  0.000  0.004  0.000  0.001  0.000  0.001  0.017
    6  0.001  0.003  0.000  0.007  0.004  0.000  0.001  0.000  0.001  0.017
    7  0.005  0.002  0.000  0.006  0.015  0.000  0.002  0.000  0.005  0.036
    8  0.001  0.003  0.000  0.007  0.004  0.000  0.001  0.000  0.001  0.017
    9  0.005  0.002  0.000  0.006  0.015  0.000  0.002  0.000  0.005  0.036
   10  0.000  0.001  0.000  0.000  0.008  0.000  0.011  0.000  0.000  0.021
   11  0.001  0.000  0.000  0.001  0.014  0.000  0.046  0.000  0.005  0.066
   12  0.000  0.000  0.000  0.001  0.001  0.000  0.011  0.000  0.008  0.021
   13  0.001  0.004  0.006  0.011  0.000  0.000  0.000  0.000  0.000  0.022
   14  0.000  0.008  0.001  0.000  0.000  0.000  0.000  0.000  0.000  0.010
   15  0.000  0.008  0.001  0.000  0.000  0.000  0.000  0.000  0.000  0.010
   16  0.000  0.012  0.000  0.000  0.000  0.000  0.000  0.000  0.001  0.013
   17  0.000  0.012  0.000  0.000  0.000  0.000  0.000  0.000  0.001  0.013
   18  0.000  0.001  0.001  0.007  0.000  0.000  0.000  0.000  0.000  0.011
   19  0.000  0.001  0.001  0.007  0.000  0.000  0.000  0.000  0.000  0.011
   20  0.001  0.004  0.006  0.011  0.000  0.000  0.000  0.000  0.000  0.022
   21  0.000  0.008  0.001  0.000  0.000  0.000  0.000  0.000  0.000  0.010
   22  0.000  0.008  0.001  0.000  0.000  0.000  0.000  0.000  0.000  0.010
   23  0.000  0.004  0.001  0.011  0.000  0.000  0.000  0.000  0.000  0.016
   24  0.000  0.004  0.001  0.011  0.000  0.000  0.000  0.000  0.000  0.016
   25  0.000  0.002  0.000  0.010  0.000  0.000  0.000  0.000  0.000  0.013
   26  0.000  0.002  0.000  0.010  0.000  0.000  0.000  0.000  0.000  0.013
   27  0.001  0.004  0.006  0.011  0.000  0.000  0.000  0.000  0.000  0.022
   28  0.001  0.004  0.006  0.011  0.000  0.000  0.000  0.000  0.000  0.022
   29  0.000  0.012  0.000  0.000  0.000  0.000  0.000  0.000  0.001  0.013
   30  0.000  0.001  0.001  0.007  0.000  0.000  0.000  0.000  0.000  0.011
   31  0.000  0.001  0.001  0.007  0.000  0.000  0.000  0.000  0.000  0.011
   32  0.000  0.012  0.000  0.000  0.000  0.000  0.000  0.000  0.001  0.013
   33  0.000  0.002  0.000  0.010  0.000  0.000  0.000  0.000  0.000  0.013
   34  0.000  0.002  0.000  0.010  0.000  0.000  0.000  0.000  0.000  0.013
   35  0.000  0.004  0.001  0.011  0.000  0.000  0.000  0.000  0.000  0.016
   36  0.000  0.004  0.001  0.011  0.000  0.000  0.000  0.000  0.000  0.016
tot    0.024  0.155  0.041  0.186  0.095  0.001  0.144  0.003  0.047  0.696
 
band    86 # energy   -2.60551723 # occ.  1.00000000
 
ion      s     py     pz     px    dxy    dyz    dz2    dxz  x2-y2    tot
    1  0.004  0.007  0.000  0.002  0.012  0.000  0.002  0.000  0.004  0.030
    2  0.000  0.000  0.000  0.001  0.007  0.000  0.034  0.000  0.008  0.050
    3  0.004  0.000  0.000  0.009  0.012  0.000  0.002  0.000  0.004  0.030
    4  0.000  0.008  0.000  0.003  0.000  0.000  0.000  0.000  0.000  0.011
    5  0.000  0.000  0.000  0.001  0.007  0.000  0.034  0.000  0.008  0.050
    6  0.000  0.001  0.000  0.000  0.014  0.000  0.034  0.000  0.001  0.050
    7  0.000  0.001  0.000  0.000  0.001  0.000  0.000  0.000  0.004  0.006
    8  0.000  0.001  0.000  0.000  0.014  0.000  0.034  0.000  0.001  0.050
    9  0.000  0.001  0.000  0.000  0.001  0.000  0.000  0.000  0.004  0.006
   10  0.004  0.000  0.000  0.009  0.012  0.000  0.002  0.000  0.004  0.030
   11  0.000  0.008  0.000  0.003  0.000  0.000  0.000  0.000  0.000  0.011
   12  0.004  0.007  0.000  0.002  0.012  0.000  0.002  0.000  0.004  0.030
   13  0.000  0.009  0.000  0.003  0.000  0.000  0.000  0.000  0.000  0.012
   14  0.000  0.010  0.001  0.004  0.000  0.000  0.000  0.000  0.000  0.015
   15  0.000  0.010  0.001  0.004  0.000  0.000  0.000  0.000  0.000  0.015
   16  0.001  0.007  0.004  0.005  0.000  0.000  0.000  0.000  0.000  0.019
   17  0.001  0.007  0.004  0.005  0.000  0.000  0.000  0.000  0.000  0.019
   18  0.000  0.000  0.001  0.013  0.000  0.000  0.000  0.000  0.000  0.014
   19  0.000  0.000  0.001  0.013  0.000  0.000  0.000  0.000  0.000  0.014
   20  0.000  0.009  0.000  0.003  0.000  0.000  0.000  0.000  0.000  0.012
   21  0.000  0.010  0.001  0.004  0.000  0.000  0.000  0.000  0.000  0.015
   22  0.000  0.010  0.001  0.004  0.000  0.000  0.000  0.000  0.000  0.015
   23  0.000  0.005  0.000  0.001  0.000  0.000  0.000  0.000  0.000  0.006
   24  0.000  0.005  0.000  0.001  0.000  0.000  0.000  0.000  0.000  0.006
   25  0.001  0.000  0.004  0.012  0.000  0.000  0.000  0.000  0.000  0.019
   26  0.001  0.000  0.004  0.012  0.000  0.000  0.000  0.000  0.000  0.019
   27  0.000  0.009  0.000  0.003  0.000  0.000  0.000  0.000  0.000  0.012
   28  0.000  0.009  0.000  0.003  0.000  0.000  0.000  0.000  0.000  0.012
   29  0.001  0.007  0.004  0.005  0.000  0.000  0.000  0.000  0.000  0.019
   30  0.000  0.000  0.001  0.013  0.000  0.000  0.000  0.000  0.000  0.014
   31  0.000  0.000  0.001  0.013  0.000  0.000  0.000  0.000  0.000  0.014
   32  0.001  0.007  0.004  0.005  0.000  0.000  0.000  0.000  0.000  0.019
   33  0.001  0.000  0.004  0.012  0.000  0.000  0.000  0.000  0.000  0.019
   34  0.001  0.000  0.004  0.012  0.000  0.000  0.000  0.000  0.000  0.019
   35  0.000  0.005  0.000  0.001  0.000  0.000  0.000  0.000  0.000  0.006
   36  0.000  0.005  0.000  0.001  0.000  0.000  0.000  0.000  0.000  0.006
tot    0.024  0.156  0.041  0.185  0.096  0.001  0.144  0.003  0.046  0.696
 
band    87 # energy   -2.60539385 # occ.  1.00000000
 
ion      s     py     pz     px    dxy    dyz    dz2    dxz  x2-y2    tot
    1  0.000  0.001  0.000  0.000  0.014  0.000  0.034  0.000  0.001  0.050
    2  0.004  0.000  0.000  0.009  0.012  0.000  0.002  0.000  0.004  0.030
    3  0.000  0.000  0.000  0.001  0.007  0.000  0.034  0.000  0.008  0.050
    4  0.000  0.001  0.000  0.000  0.001  0.000  0.000  0.000  0.004  0.006
    5  0.004  0.000  0.000  0.009  0.012  0.000  0.002  0.000  0.004  0.030
    6  0.004  0.007  0.000  0.002  0.012  0.000  0.002  0.000  0.004  0.030
    7  0.000  0.008  0.000  0.003  0.000  0.000  0.000  0.000  0.000  0.011
    8  0.004  0.007  0.000  0.002  0.012  0.000  0.002  0.000  0.004  0.030
    9  0.000  0.008  0.000  0.003  0.000  0.000  0.000  0.000  0.000  0.011
   10  0.000  0.000  0.000  0.001  0.007  0.000  0.034  0.000  0.008  0.050
   11  0.000  0.001  0.000  0.000  0.001  0.000  0.000  0.000  0.004  0.006
   12  0.000  0.001  0.000  0.000  0.014  0.000  0.034  0.000  0.001  0.050
   13  0.000  0.004  0.000  0.002  0.000  0.000  0.000  0.000  0.000  0.006
   14  0.001  0.000  0.004  0.012  0.000  0.000  0.000  0.000  0.000  0.019
   15  0.001  0.000  0.004  0.012  0.000  0.000  0.000  0.000  0.000  0.019
   16  0.000  0.000  0.001  0.013  0.000  0.000  0.000  0.000  0.000  0.015
   17  0.000  0.000  0.001  0.013  0.000  0.000  0.000  0.000  0.000  0.015
   18  0.001  0.007  0.004  0.005  0.000  0.000  0.000  0.000  0.000  0.019
   19  0.001  0.007  0.004  0.005  0.000  0.000  0.000  0.000  0.000  0.019
   20  0.000  0.005  0.000  0.002  0.000  0.000  0.000  0.000  0.000  0.006
   21  0.001  0.000  0.004  0.012  0.000  0.000  0.000  0.000  0.000  0.019
   22  0.001  0.000  0.004  0.012  0.000  0.000  0.000  0.000  0.000  0.019
   23  0.000  0.009  0.000  0.003  0.000  0.000  0.000  0.000  0.000  0.012
   24  0.000  0.009  0.000  0.003  0.000  0.000  0.000  0.000  0.000  0.012
   25  0.000  0.010  0.001  0.004  0.000  0.000  0.000  0.000  0.000  0.014
   26  0.000  0.010  0.001  0.004  0.000  0.000  0.000  0.000  0.000  0.014
   27  0.000  0.005  0.000  0.002  0.000  0.000  0.000  0.000  0.000  0.006
   28  0.000  0.004  0.000  0.002  0.000  0.000  0.000  0.000  0.000  0.006
   29  0.000  0.000  0.001  0.013  0.000  0.000  0.000  0.000  0.000  0.015
   30  0.001  0.007  0.004  0.005  0.000  0.000  0.000  0.000  0.000  0.019
   31  0.001  0.007  0.004  0.005  0.000  0.000  0.000  0.000  0.000  0.019
   32  0.000  0.000  0.001  0.013  0.000  0.000  0.000  0.000  0.000  0.015
   33  0.000  0.010  0.001  0.004  0.000  0.000  0.000  0.000  0.000  0.014
   34  0.000  0.010  0.001  0.004  0.000  0.000  0.000  0.000  0.000  0.014
   35  0.000  0.009  0.000  0.003  0.000  0.000  0.000  0.000  0.000  0.012
   36  0.000  0.009  0.000  0.003  0.000  0.000  0.000  0.000  0.000  0.012
tot    0.024  0.156  0.041  0.186  0.096  0.001  0.144  0.003  0.047  0.696
 
band    88 # energy   -2.53772870 # occ.  1.00000000
 
ion      s     py     pz     px    dxy    dyz    dz2    dxz  x2-y2    tot
    1  0.000  0.003  0.000  0.001  0.000  0.000  0.000  0.000  0.001  0.005
    2  0.000  0.001  0.000  0.000  0.019  0.000  0.000  0.000  0.056  0.075
    3  0.000  0.003  0.000  0.001  0.000  0.000  0.000  0.000  0.001  0.005
    4  0.000  0.003  0.000  0.001  0.000  0.000  0.000  0.000  0.001  0.005
    5  0.000  0.001  0.000  0.000  0.019  0.000  0.000  0.000  0.056  0.075
    6  0.000  0.001  0.000  0.000  0.019  0.000  0.000  0.000  0.056  0.075
    7  0.000  0.001  0.000  0.000  0.019  0.000  0.000  0.000  0.056  0.075
    8  0.000  0.001  0.000  0.000  0.019  0.000  0.000  0.000  0.056  0.075
    9  0.000  0.001  0.000  0.000  0.019  0.000  0.000  0.000  0.056  0.075
   10  0.000  0.003  0.000  0.001  0.000  0.000  0.000  0.000  0.001  0.005
   11  0.000  0.003  0.000  0.001  0.000  0.000  0.000  0.000  0.001  0.005
   12  0.000  0.003  0.000  0.001  0.000  0.000  0.000  0.000  0.001  0.005
   13  0.000  0.013  0.000  0.004  0.000  0.000  0.000  0.000  0.000  0.017
   14  0.000  0.013  0.000  0.004  0.000  0.000  0.000  0.000  0.000  0.018
   15  0.000  0.013  0.000  0.004  0.000  0.000  0.000  0.000  0.000  0.018
   16  0.000  0.007  0.000  0.002  0.000  0.000  0.000  0.000  0.000  0.010
   17  0.000  0.007  0.000  0.002  0.000  0.000  0.000  0.000  0.000  0.010
   18  0.000  0.013  0.000  0.004  0.000  0.000  0.000  0.000  0.000  0.018
   19  0.000  0.013  0.000  0.004  0.000  0.000  0.000  0.000  0.000  0.018
   20  0.000  0.013  0.000  0.004  0.000  0.000  0.000  0.000  0.000  0.017
   21  0.000  0.013  0.000  0.004  0.000  0.000  0.000  0.000  0.000  0.018
   22  0.000  0.013  0.000  0.004  0.000  0.000  0.000  0.000  0.000  0.018
   23  0.000  0.007  0.000  0.002  0.000  0.000  0.000  0.000  0.000  0.010
   24  0.000  0.007  0.000  0.002  0.000  0.000  0.000  0.000  0.000  0.010
   25  0.000  0.007  0.000  0.002  0.000  0.000  0.000  0.000  0.000  0.010
   26  0.000  0.007  0.000  0.002  0.000  0.000  0.000  0.000  0.000  0.010
   27  0.000  0.013  0.000  0.004  0.000  0.000  0.000  0.000  0.000  0.017
   28  0.000  0.013  0.000  0.004  0.000  0.000  0.000  0.000  0.000  0.017
   29  0.000  0.007  0.000  0.002  0.000  0.000  0.000  0.000  0.000  0.010
   30  0.000  0.013  0.000  0.004  0.000  0.000  0.000  0.000  0.000  0.018
   31  0.000  0.013  0.000  0.004  0.000  0.000  0.000  0.000  0.000  0.018
   32  0.000  0.007  0.000  0.002  0.000  0.000  0.000  0.000  0.000  0.010
   33  0.000  0.007  0.000  0.002  0.000  0.000  0.000  0.000  0.000  0.010
   34  0.000  0.007  0.000  0.002  0.000  0.000  0.000  0.000  0.000  0.010
   35  0.000  0.007  0.000  0.002  0.000  0.000  0.000  0.000  0.000  0.010
   36  0.000  0.007  0.000  0.002  0.000  0.000  0.000  0.000  0.000  0.010
tot    0.000  0.263  0.000  0.088  0.113  0.007  0.000  0.002  0.340  0.813
 
band    89 # energy   -2.53751921 # occ.  1.00000000
 
ion      s     py     pz     px    dxy    dyz    dz2    dxz  x2-y2    tot
    1  0.000  0.001  0.000  0.000  0.019  0.000  0.000  0.000  0.056  0.075
    2  0.000  0.003  0.000  0.001  0.000  0.000  0.000  0.000  0.001  0.005
    3  0.000  0.001  0.000  0.000  0.019  0.000  0.000  0.000  0.056  0.075
    4  0.000  0.001  0.000  0.000  0.019  0.000  0.000  0.000  0.056  0.075
    5  0.000  0.003  0.000  0.001  0.000  0.000  0.000  0.000  0.001  0.005
    6  0.000  0.003  0.000  0.001  0.000  0.000  0.000  0.000  0.001  0.005
    7  0.000  0.003  0.000  0.001  0.000  0.000  0.000  0.000  0.001  0.005
    8  0.000  0.003  0.000  0.001  0.000  0.000  0.000  0.000  0.001  0.005
    9  0.000  0.003  0.000  0.001  0.000  0.000  0.000  0.000  0.001  0.005
   10  0.000  0.001  0.000  0.000  0.019  0.000  0.000  0.000  0.056  0.075
   11  0.000  0.001  0.000  0.000  0.019  0.000  0.000  0.000  0.056  0.075
   12  0.000  0.001  0.000  0.000  0.019  0.000  0.000  0.000  0.056  0.075
   13  0.000  0.007  0.000  0.002  0.000  0.000  0.000  0.000  0.000  0.010
   14  0.000  0.007  0.000  0.002  0.000  0.000  0.000  0.000  0.000  0.010
   15  0.000  0.007  0.000  0.002  0.000  0.000  0.000  0.000  0.000  0.010
   16  0.000  0.013  0.000  0.004  0.000  0.000  0.000  0.000  0.000  0.018
   17  0.000  0.013  0.000  0.004  0.000  0.000  0.000  0.000  0.000  0.018
   18  0.000  0.007  0.000  0.002  0.000  0.000  0.000  0.000  0.000  0.010
   19  0.000  0.007  0.000  0.002  0.000  0.000  0.000  0.000  0.000  0.010
   20  0.000  0.007  0.000  0.002  0.000  0.000  0.000  0.000  0.000  0.010
   21  0.000  0.007  0.000  0.002  0.000  0.000  0.000  0.000  0.000  0.010
   22  0.000  0.007  0.000  0.002  0.000  0.000  0.000  0.000  0.000  0.010
   23  0.000  0.013  0.000  0.004  0.000  0.000  0.000  0.000  0.000  0.017
   24  0.000  0.013  0.000  0.004  0.000  0.000  0.000  0.000  0.000  0.017
   25  0.000  0.013  0.000  0.004  0.000  0.000  0.000  0.000  0.000  0.018
   26  0.000  0.013  0.000  0.004  0.000  0.000  0.000  0.000  0.000  0.018
   27  0.000  0.007  0.000  0.002  0.000  0.000  0.000  0.000  0.000  0.010
   28  0.000  0.007  0.000  0.002  0.000  0.000  0.000  0.000  0.000  0.010
   29  0.000  0.013  0.000  0.004  0.000  0.000  0.000  0.000  0.000  0.018
   30  0.000  0.007  0.000  0.002  0.000  0.000  0.000  0.000  0.000  0.010
   31  0.000  0.007  0.000  0.002  0.000  0.000  0.000  0.000  0.000  0.010
   32  0.000  0.013  0.000  0.004  0.000  0.000  0.000  0.000  0.000  0.018
   33  0.000  0.013  0.000  0.004  0.000  0.000  0.000  0.000  0.000  0.018
   34  0.000  0.013  0.000  0.004  0.000  0.000  0.000  0.000  0.000  0.018
   35  0.000  0.013  0.000  0.004  0.000  0.000  0.000  0.000  0.000  0.017
   36  0.000  0.013  0.000  0.004  0.000  0.000  0.000  0.000  0.000  0.017
tot    0.000  0.263  0.000  0.088  0.113  0.007  0.000  0.002  0.340  0.813
 
band    90 # energy   -2.45811104 # occ.  1.00000000
 
ion      s     py     pz     px    dxy    dyz    dz2    dxz  x2-y2    tot
    1  0.000  0.000  0.011  0.000  0.000  0.000  0.000  0.000  0.000  0.011
    2  0.000  0.000  0.000  0.000  0.000  0.001  0.000  0.002  0.000  0.002
    3  0.000  0.000  0.011  0.000  0.000  0.000  0.000  0.000  0.000  0.011
    4  0.000  0.000  0.011  0.000  0.000  0.000  0.000  0.000  0.000  0.011
    5  0.000  0.000  0.000  0.000  0.000  0.001  0.000  0.002  0.000  0.002
    6  0.000  0.000  0.000  0.000  0.000  0.001  0.000  0.002  0.000  0.002
    7  0.000  0.000  0.000  0.000  0.000  0.001  0.000  0.002  0.000  0.002
    8  0.000  0.000  0.000  0.000  0.000  0.001  0.000  0.002  0.000  0.002
    9  0.000  0.000  0.000  0.000  0.000  0.001  0.000  0.002  0.000  0.002
   10  0.000  0.000  0.011  0.000  0.000  0.000  0.000  0.000  0.000  0.011
   11  0.000  0.000  0.011  0.000  0.000  0.000  0.000  0.000  0.000  0.011
   12  0.000  0.000  0.011  0.000  0.000  0.000  0.000  0.000  0.000  0.011
   13  0.001  0.001  0.002  0.003  0.000  0.000  0.000  0.000  0.000  0.007
   14  0.001  0.001  0.002  0.003  0.000  0.000  0.000  0.000  0.000  0.007
   15  0.001  0.001  0.002  0.003  0.000  0.000  0.000  0.000  0.000  0.007
   16  0.000  0.003  0.025  0.009  0.000  0.000  0.000  0.000  0.000  0.038
   17  0.000  0.003  0.025  0.009  0.000  0.000  0.000  0.000  0.000  0.038
   18  0.001  0.001  0.002  0.003  0.000  0.000  0.000  0.000  0.000  0.007
   19  0.001  0.001  0.002  0.003  0.000  0.000  0.000  0.000  0.000  0.007
   20  0.001  0.001  0.002  0.003  0.000  0.000  0.000  0.000  0.000  0.007
   21  0.001  0.001  0.002  0.003  0.000  0.000  0.000  0.000  0.000  0.007
   22  0.001  0.001  0.002  0.003  0.000  0.000  0.000  0.000  0.000  0.007
   23  0.000  0.003  0.025  0.009  0.000  0.000  0.000  0.000  0.000  0.038
   24  0.000  0.003  0.025  0.009  0.000  0.000  0.000  0.000  0.000  0.038
   25  0.000  0.003  0.025  0.009  0.000  0.000  0.000  0.000  0.000  0.038
   26  0.000  0.003  0.025  0.009  0.000  0.000  0.000  0.000  0.000  0.038
   27  0.001  0.001  0.002  0.003  0.000  0.000  0.000  0.000  0.000  0.007
   28  0.001  0.001  0.002  0.003  0.000  0.000  0.000  0.000  0.000  0.007
   29  0.000  0.003  0.025  0.009  0.000  0.000  0.000  0.000  0.000  0.038
   30  0.001  0.001  0.002  0.003  0.000  0.000  0.000  0.000  0.000  0.007
   31  0.001  0.001  0.002  0.003  0.000  0.000  0.000  0.000  0.000  0.007
   32  0.000  0.003  0.025  0.009  0.000  0.000  0.000  0.000  0.000  0.038
   33  0.000  0.003  0.025  0.009  0.000  0.000  0.000  0.000  0.000  0.038
   34  0.000  0.003  0.025  0.009  0.000  0.000  0.000  0.000  0.000  0.038
   35  0.000  0.003  0.025  0.009  0.000  0.000  0.000  0.000  0.000  0.038
   36  0.000  0.003  0.025  0.009  0.000  0.000  0.000  0.000  0.000  0.038
tot    0.019  0.047  0.397  0.141  0.000  0.004  0.001  0.011  0.000  0.620
 
band    91 # energy   -2.45755207 # occ.  1.00000000
 
ion      s     py     pz     px    dxy    dyz    dz2    dxz  x2-y2    tot
    1  0.000  0.000  0.000  0.000  0.000  0.001  0.000  0.002  0.000  0.002
    2  0.000  0.000  0.011  0.000  0.000  0.000  0.000  0.000  0.000  0.011
    3  0.000  0.000  0.000  0.000  0.000  0.001  0.000  0.002  0.000  0.002
    4  0.000  0.000  0.000  0.000  0.000  0.001  0.000  0.002  0.000  0.002
    5  0.000  0.000  0.011  0.000  0.000  0.000  0.000  0.000  0.000  0.011
    6  0.000  0.000  0.011  0.000  0.000  0.000  0.000  0.000  0.000  0.011
    7  0.000  0.000  0.011  0.000  0.000  0.000  0.000  0.000  0.000  0.011
    8  0.000  0.000  0.011  0.000  0.000  0.000  0.000  0.000  0.000  0.011
    9  0.000  0.000  0.011  0.000  0.000  0.000  0.000  0.000  0.000  0.011
   10  0.000  0.000  0.000  0.000  0.000  0.001  0.000  0.002  0.000  0.002
   11  0.000  0.000  0.000  0.000  0.000  0.001  0.000  0.002  0.000  0.002
   12  0.000  0.000  0.000  0.000  0.000  0.001  0.000  0.002  0.000  0.002
   13  0.000  0.003  0.025  0.009  0.000  0.000  0.000  0.000  0.000  0.038
   14  0.000  0.003  0.025  0.009  0.000  0.000  0.000  0.000  0.000  0.038
   15  0.000  0.003  0.025  0.009  0.000  0.000  0.000  0.000  0.000  0.038
   16  0.001  0.001  0.002  0.003  0.000  0.000  0.000  0.000  0.000  0.007
   17  0.001  0.001  0.002  0.003  0.000  0.000  0.000  0.000  0.000  0.007
   18  0.000  0.003  0.025  0.009  0.000  0.000  0.000  0.000  0.000  0.038
   19  0.000  0.003  0.025  0.009  0.000  0.000  0.000  0.000  0.000  0.038
   20  0.000  0.003  0.025  0.009  0.000  0.000  0.000  0.000  0.000  0.038
   21  0.000  0.003  0.025  0.009  0.000  0.000  0.000  0.000  0.000  0.038
   22  0.000  0.003  0.025  0.009  0.000  0.000  0.000  0.000  0.000  0.038
   23  0.001  0.001  0.002  0.003  0.000  0.000  0.000  0.000  0.000  0.007
   24  0.001  0.001  0.002  0.003  0.000  0.000  0.000  0.000  0.000  0.007
   25  0.001  0.001  0.002  0.003  0.000  0.000  0.000  0.000  0.000  0.007
   26  0.001  0.001  0.002  0.003  0.000  0.000  0.000  0.000  0.000  0.007
   27  0.000  0.003  0.025  0.009  0.000  0.000  0.000  0.000  0.000  0.038
   28  0.000  0.003  0.025  0.009  0.000  0.000  0.000  0.000  0.000  0.038
   29  0.001  0.001  0.002  0.003  0.000  0.000  0.000  0.000  0.000  0.007
   30  0.000  0.003  0.025  0.009  0.000  0.000  0.000  0.000  0.000  0.038
   31  0.000  0.003  0.025  0.009  0.000  0.000  0.000  0.000  0.000  0.038
   32  0.001  0.001  0.002  0.003  0.000  0.000  0.000  0.000  0.000  0.007
   33  0.001  0.001  0.002  0.003  0.000  0.000  0.000  0.000  0.000  0.007
   34  0.001  0.001  0.002  0.003  0.000  0.000  0.000  0.000  0.000  0.007
   35  0.001  0.001  0.002  0.003  0.000  0.000  0.000  0.000  0.000  0.007
   36  0.001  0.001  0.002  0.003  0.000  0.000  0.000  0.000  0.000  0.007
tot    0.019  0.047  0.397  0.141  0.000  0.004  0.001  0.011  0.000  0.620
 
band    92 # energy   -2.31061198 # occ.  1.00000000
 
ion      s     py     pz     px    dxy    dyz    dz2    dxz  x2-y2    tot
    1  0.000  0.000  0.000  0.000  0.000  0.038  0.000  0.013  0.000  0.050
    2  0.000  0.000  0.000  0.000  0.000  0.038  0.000  0.013  0.000  0.050
    3  0.000  0.000  0.000  0.000  0.000  0.038  0.000  0.013  0.000  0.050
    4  0.000  0.000  0.000  0.000  0.000  0.038  0.000  0.013  0.000  0.050
    5  0.000  0.000  0.000  0.000  0.000  0.038  0.000  0.013  0.000  0.050
    6  0.000  0.000  0.000  0.000  0.000  0.038  0.000  0.013  0.000  0.050
    7  0.000  0.000  0.000  0.000  0.000  0.038  0.000  0.013  0.000  0.050
    8  0.000  0.000  0.000  0.000  0.000  0.038  0.000  0.013  0.000  0.050
    9  0.000  0.000  0.000  0.000  0.000  0.038  0.000  0.013  0.000  0.050
   10  0.000  0.000  0.000  0.000  0.000  0.038  0.000  0.013  0.000  0.050
   11  0.000  0.000  0.000  0.000  0.000  0.038  0.000  0.013  0.000  0.050
   12  0.000  0.000  0.000  0.000  0.000  0.038  0.000  0.013  0.000  0.050
   13  0.000  0.008  0.000  0.003  0.000  0.000  0.000  0.000  0.000  0.012
   14  0.000  0.008  0.000  0.003  0.000  0.000  0.000  0.000  0.000  0.012
   15  0.000  0.008  0.000  0.003  0.000  0.000  0.000  0.000  0.000  0.012
   16  0.000  0.008  0.000  0.003  0.000  0.000  0.000  0.000  0.000  0.012
   17  0.000  0.008  0.000  0.003  0.000  0.000  0.000  0.000  0.000  0.012
   18  0.000  0.008  0.000  0.003  0.000  0.000  0.000  0.000  0.000  0.012
   19  0.000  0.008  0.000  0.003  0.000  0.000  0.000  0.000  0.000  0.012
   20  0.000  0.008  0.000  0.003  0.000  0.000  0.000  0.000  0.000  0.012
   21  0.000  0.008  0.000  0.003  0.000  0.000  0.000  0.000  0.000  0.012
   22  0.000  0.008  0.000  0.003  0.000  0.000  0.000  0.000  0.000  0.012
   23  0.000  0.008  0.000  0.003  0.000  0.000  0.000  0.000  0.000  0.012
   24  0.000  0.008  0.000  0.003  0.000  0.000  0.000  0.000  0.000  0.012
   25  0.000  0.008  0.000  0.003  0.000  0.000  0.000  0.000  0.000  0.012
   26  0.000  0.008  0.000  0.003  0.000  0.000  0.000  0.000  0.000  0.012
   27  0.000  0.008  0.000  0.003  0.000  0.000  0.000  0.000  0.000  0.012
   28  0.000  0.008  0.000  0.003  0.000  0.000  0.000  0.000  0.000  0.012
   29  0.000  0.008  0.000  0.003  0.000  0.000  0.000  0.000  0.000  0.012
   30  0.000  0.008  0.000  0.003  0.000  0.000  0.000  0.000  0.000  0.012
   31  0.000  0.008  0.000  0.003  0.000  0.000  0.000  0.000  0.000  0.012
   32  0.000  0.008  0.000  0.003  0.000  0.000  0.000  0.000  0.000  0.012
   33  0.000  0.008  0.000  0.003  0.000  0.000  0.000  0.000  0.000  0.012
   34  0.000  0.008  0.000  0.003  0.000  0.000  0.000  0.000  0.000  0.012
   35  0.000  0.008  0.000  0.003  0.000  0.000  0.000  0.000  0.000  0.012
   36  0.000  0.008  0.000  0.003  0.000  0.000  0.000  0.000  0.000  0.012
tot    0.000  0.202  0.000  0.067  0.003  0.458  0.000  0.153  0.008  0.892
 
band    93 # energy   -2.28302081 # occ.  1.00000000
 
ion      s     py     pz     px    dxy    dyz    dz2    dxz  x2-y2    tot
    1  0.000  0.000  0.000  0.000  0.000  0.013  0.000  0.038  0.000  0.051
    2  0.000  0.000  0.000  0.000  0.000  0.013  0.000  0.038  0.000  0.051
    3  0.000  0.000  0.000  0.000  0.000  0.013  0.000  0.038  0.000  0.051
    4  0.000  0.000  0.000  0.000  0.000  0.013  0.000  0.038  0.000  0.051
    5  0.000  0.000  0.000  0.000  0.000  0.013  0.000  0.038  0.000  0.051
    6  0.000  0.000  0.000  0.000  0.000  0.013  0.000  0.038  0.000  0.051
    7  0.000  0.000  0.000  0.000  0.000  0.013  0.000  0.038  0.000  0.051
    8  0.000  0.000  0.000  0.000  0.000  0.013  0.000  0.038  0.000  0.051
    9  0.000  0.000  0.000  0.000  0.000  0.013  0.000  0.038  0.000  0.051
   10  0.000  0.000  0.000  0.000  0.000  0.013  0.000  0.038  0.000  0.051
   11  0.000  0.000  0.000  0.000  0.000  0.013  0.000  0.038  0.000  0.051
   12  0.000  0.000  0.000  0.000  0.000  0.013  0.000  0.038  0.000  0.051
   13  0.000  0.003  0.000  0.008  0.000  0.000  0.000  0.000  0.000  0.012
   14  0.000  0.003  0.000  0.008  0.000  0.000  0.000  0.000  0.000  0.012
   15  0.000  0.003  0.000  0.008  0.000  0.000  0.000  0.000  0.000  0.012
   16  0.000  0.003  0.000  0.008  0.000  0.000  0.000  0.000  0.000  0.012
   17  0.000  0.003  0.000  0.008  0.000  0.000  0.000  0.000  0.000  0.012
   18  0.000  0.003  0.000  0.008  0.000  0.000  0.000  0.000  0.000  0.012
   19  0.000  0.003  0.000  0.008  0.000  0.000  0.000  0.000  0.000  0.012
   20  0.000  0.003  0.000  0.008  0.000  0.000  0.000  0.000  0.000  0.012
   21  0.000  0.003  0.000  0.008  0.000  0.000  0.000  0.000  0.000  0.012
   22  0.000  0.003  0.000  0.008  0.000  0.000  0.000  0.000  0.000  0.012
   23  0.000  0.003  0.000  0.008  0.000  0.000  0.000  0.000  0.000  0.012
   24  0.000  0.003  0.000  0.008  0.000  0.000  0.000  0.000  0.000  0.012
   25  0.000  0.003  0.000  0.008  0.000  0.000  0.000  0.000  0.000  0.012
   26  0.000  0.003  0.000  0.008  0.000  0.000  0.000  0.000  0.000  0.012
   27  0.000  0.003  0.000  0.008  0.000  0.000  0.000  0.000  0.000  0.012
   28  0.000  0.003  0.000  0.008  0.000  0.000  0.000  0.000  0.000  0.012
   29  0.000  0.003  0.000  0.008  0.000  0.000  0.000  0.000  0.000  0.012
   30  0.000  0.003  0.000  0.008  0.000  0.000  0.000  0.000  0.000  0.012
   31  0.000  0.003  0.000  0.008  0.000  0.000  0.000  0.000  0.000  0.012
   32  0.000  0.003  0.000  0.008  0.000  0.000  0.000  0.000  0.000  0.012
   33  0.000  0.003  0.000  0.008  0.000  0.000  0.000  0.000  0.000  0.012
   34  0.000  0.003  0.000  0.008  0.000  0.000  0.000  0.000  0.000  0.012
   35  0.000  0.003  0.000  0.008  0.000  0.000  0.000  0.000  0.000  0.012
   36  0.000  0.003  0.000  0.008  0.000  0.000  0.000  0.000  0.000  0.012
tot    0.000  0.066  0.000  0.197  0.009  0.154  0.000  0.463  0.003  0.892
 
band    94 # energy   -2.14127107 # occ.  1.00000000
 
ion      s     py     pz     px    dxy    dyz    dz2    dxz  x2-y2    tot
    1  0.000  0.000  0.003  0.000  0.000  0.001  0.000  0.002  0.000  0.005
    2  0.000  0.000  0.003  0.000  0.000  0.000  0.000  0.002  0.000  0.005
    3  0.000  0.000  0.003  0.000  0.000  0.000  0.000  0.002  0.000  0.005
    4  0.000  0.000  0.012  0.000  0.000  0.002  0.000  0.007  0.000  0.021
    5  0.000  0.000  0.003  0.000  0.000  0.000  0.000  0.002  0.000  0.005
    6  0.000  0.000  0.003  0.000  0.000  0.001  0.000  0.002  0.000  0.005
    7  0.000  0.000  0.012  0.000  0.000  0.002  0.000  0.007  0.000  0.021
    8  0.000  0.000  0.003  0.000  0.000  0.001  0.000  0.002  0.000  0.005
    9  0.000  0.000  0.012  0.000  0.000  0.002  0.000  0.007  0.000  0.021
   10  0.000  0.000  0.003  0.000  0.000  0.000  0.000  0.002  0.000  0.005
   11  0.000  0.000  0.012  0.000  0.000  0.002  0.000  0.007  0.000  0.021
   12  0.000  0.000  0.003  0.000  0.000  0.001  0.000  0.002  0.000  0.005
   13  0.001  0.003  0.023  0.009  0.000  0.000  0.000  0.000  0.000  0.036
   14  0.000  0.010  0.006  0.000  0.000  0.000  0.000  0.000  0.000  0.016
   15  0.000  0.010  0.006  0.000  0.000  0.000  0.000  0.000  0.000  0.016
   16  0.000  0.002  0.006  0.008  0.000  0.000  0.000  0.000  0.000  0.016
   17  0.000  0.002  0.006  0.008  0.000  0.000  0.000  0.000  0.000  0.016
   18  0.000  0.002  0.006  0.008  0.000  0.000  0.000  0.000  0.000  0.016
   19  0.000  0.002  0.006  0.008  0.000  0.000  0.000  0.000  0.000  0.016
   20  0.001  0.003  0.023  0.009  0.000  0.000  0.000  0.000  0.000  0.036
   21  0.000  0.010  0.006  0.000  0.000  0.000  0.000  0.000  0.000  0.016
   22  0.000  0.010  0.006  0.000  0.000  0.000  0.000  0.000  0.000  0.016
   23  0.001  0.003  0.023  0.009  0.000  0.000  0.000  0.000  0.000  0.036
   24  0.001  0.003  0.023  0.009  0.000  0.000  0.000  0.000  0.000  0.036
   25  0.000  0.010  0.006  0.000  0.000  0.000  0.000  0.000  0.000  0.016
   26  0.000  0.010  0.006  0.000  0.000  0.000  0.000  0.000  0.000  0.016
   27  0.001  0.003  0.023  0.009  0.000  0.000  0.000  0.000  0.000  0.036
   28  0.001  0.003  0.023  0.009  0.000  0.000  0.000  0.000  0.000  0.036
   29  0.000  0.002  0.006  0.008  0.000  0.000  0.000  0.000  0.000  0.016
   30  0.000  0.002  0.006  0.008  0.000  0.000  0.000  0.000  0.000  0.016
   31  0.000  0.002  0.006  0.008  0.000  0.000  0.000  0.000  0.000  0.016
   32  0.000  0.002  0.006  0.008  0.000  0.000  0.000  0.000  0.000  0.016
   33  0.000  0.010  0.006  0.000  0.000  0.000  0.000  0.000  0.000  0.016
   34  0.000  0.010  0.006  0.000  0.000  0.000  0.000  0.000  0.000  0.016
   35  0.001  0.003  0.023  0.009  0.000  0.000  0.000  0.000  0.000  0.036
   36  0.001  0.003  0.023  0.009  0.000  0.000  0.000  0.000  0.000  0.036
tot    0.012  0.122  0.347  0.135  0.001  0.014  0.001  0.041  0.001  0.674
 
band    95 # energy   -2.14121461 # occ.  1.00000000
 
ion      s     py     pz     px    dxy    dyz    dz2    dxz  x2-y2    tot
    1  0.000  0.000  0.009  0.000  0.000  0.002  0.000  0.005  0.000  0.016
    2  0.000  0.000  0.009  0.000  0.000  0.002  0.000  0.005  0.000  0.016
    3  0.000  0.000  0.009  0.000  0.000  0.002  0.000  0.005  0.000  0.016
    4  0.000  0.000  0.000  0.000  0.000  0.000  0.000  0.000  0.000  0.000
    5  0.000  0.000  0.009  0.000  0.000  0.002  0.000  0.005  0.000  0.016
    6  0.000  0.000  0.009  0.000  0.000  0.002  0.000  0.005  0.000  0.016
    7  0.000  0.000  0.000  0.000  0.000  0.000  0.000  0.000  0.000  0.000
    8  0.000  0.000  0.009  0.000  0.000  0.002  0.000  0.005  0.000  0.016
    9  0.000  0.000  0.000  0.000  0.000  0.000  0.000  0.000  0.000  0.000
   10  0.000  0.000  0.009  0.000  0.000  0.002  0.000  0.005  0.000  0.016
   11  0.000  0.000  0.000  0.000  0.000  0.000  0.000  0.000  0.000  0.000
   12  0.000  0.000  0.009  0.000  0.000  0.002  0.000  0.005  0.000  0.016
   13  0.000  0.007  0.000  0.002  0.000  0.000  0.000  0.000  0.000  0.010
   14  0.001  0.000  0.017  0.011  0.000  0.000  0.000  0.000  0.000  0.029
   15  0.001  0.000  0.017  0.011  0.000  0.000  0.000  0.000  0.000  0.029
   16  0.001  0.008  0.017  0.003  0.000  0.000  0.000  0.000  0.000  0.029
   17  0.001  0.008  0.017  0.003  0.000  0.000  0.000  0.000  0.000  0.029
   18  0.001  0.008  0.017  0.003  0.000  0.000  0.000  0.000  0.000  0.029
   19  0.001  0.008  0.017  0.003  0.000  0.000  0.000  0.000  0.000  0.029
   20  0.000  0.007  0.000  0.002  0.000  0.000  0.000  0.000  0.000  0.010
   21  0.001  0.000  0.017  0.011  0.000  0.000  0.000  0.000  0.000  0.029
   22  0.001  0.000  0.017  0.011  0.000  0.000  0.000  0.000  0.000  0.029
   23  0.000  0.007  0.000  0.002  0.000  0.000  0.000  0.000  0.000  0.010
   24  0.000  0.007  0.000  0.002  0.000  0.000  0.000  0.000  0.000  0.010
   25  0.001  0.000  0.017  0.011  0.000  0.000  0.000  0.000  0.000  0.029
   26  0.001  0.000  0.017  0.011  0.000  0.000  0.000  0.000  0.000  0.029
   27  0.000  0.007  0.000  0.002  0.000  0.000  0.000  0.000  0.000  0.010
   28  0.000  0.007  0.000  0.002  0.000  0.000  0.000  0.000  0.000  0.010
   29  0.001  0.008  0.017  0.003  0.000  0.000  0.000  0.000  0.000  0.029
   30  0.001  0.008  0.017  0.003  0.000  0.000  0.000  0.000  0.000  0.029
   31  0.001  0.008  0.017  0.003  0.000  0.000  0.000  0.000  0.000  0.029
   32  0.001  0.008  0.017  0.003  0.000  0.000  0.000  0.000  0.000  0.029
   33  0.001  0.000  0.017  0.011  0.000  0.000  0.000  0.000  0.000  0.029
   34  0.001  0.000  0.017  0.011  0.000  0.000  0.000  0.000  0.000  0.029
   35  0.000  0.007  0.000  0.002  0.000  0.000  0.000  0.000  0.000  0.010
   36  0.000  0.007  0.000  0.002  0.000  0.000  0.000  0.000  0.000  0.010
tot    0.012  0.122  0.347  0.135  0.001  0.014  0.001  0.041  0.001  0.674
 
band    96 # energy   -1.90236149 # occ.  1.00000000
 
ion      s     py     pz     px    dxy    dyz    dz2    dxz  x2-y2    tot
    1  0.001  0.000  0.000  0.000  0.001  0.000  0.064  0.000  0.000  0.066
    2  0.002  0.000  0.000  0.001  0.027  0.000  0.008  0.000  0.009  0.047
    3  0.001  0.000  0.000  0.000  0.001  0.000  0.064  0.000  0.000  0.066
    4  0.001  0.000  0.000  0.000  0.001  0.000  0.064  0.000  0.000  0.066
    5  0.002  0.000  0.000  0.001  0.027  0.000  0.008  0.000  0.009  0.047
    6  0.002  0.000  0.000  0.001  0.027  0.000  0.008  0.000  0.009  0.047
    7  0.002  0.000  0.000  0.001  0.027  0.000  0.008  0.000  0.009  0.047
    8  0.002  0.000  0.000  0.001  0.027  0.000  0.008  0.000  0.009  0.047
    9  0.002  0.000  0.000  0.001  0.027  0.000  0.008  0.000  0.009  0.047
   10  0.001  0.000  0.000  0.000  0.001  0.000  0.064  0.000  0.000  0.066
   11  0.001  0.000  0.000  0.000  0.001  0.000  0.064  0.000  0.000  0.066
   12  0.001  0.000  0.000  0.000  0.001  0.000  0.064  0.000  0.000  0.066
   13  0.000  0.001  0.000  0.002  0.001  0.000  0.000  0.000  0.000  0.004
   14  0.000  0.001  0.000  0.002  0.001  0.000  0.000  0.000  0.000  0.004
   15  0.000  0.001  0.000  0.002  0.001  0.000  0.000  0.000  0.000  0.004
   16  0.001  0.000  0.005  0.000  0.000  0.000  0.000  0.000  0.000  0.007
   17  0.001  0.000  0.005  0.000  0.000  0.000  0.000  0.000  0.000  0.007
   18  0.000  0.001  0.000  0.002  0.001  0.000  0.000  0.000  0.000  0.004
   19  0.000  0.001  0.000  0.002  0.001  0.000  0.000  0.000  0.000  0.004
   20  0.000  0.001  0.000  0.002  0.001  0.000  0.000  0.000  0.000  0.004
   21  0.000  0.001  0.000  0.002  0.001  0.000  0.000  0.000  0.000  0.004
   22  0.000  0.001  0.000  0.002  0.001  0.000  0.000  0.000  0.000  0.004
   23  0.001  0.000  0.005  0.000  0.000  0.000  0.000  0.000  0.000  0.007
   24  0.001  0.000  0.005  0.000  0.000  0.000  0.000  0.000  0.000  0.007
   25  0.001  0.000  0.005  0.000  0.000  0.000  0.000  0.000  0.000  0.007
   26  0.001  0.000  0.005  0.000  0.000  0.000  0.000  0.000  0.000  0.007
   27  0.000  0.001  0.000  0.002  0.001  0.000  0.000  0.000  0.000  0.004
   28  0.000  0.001  0.000  0.002  0.001  0.000  0.000  0.000  0.000  0.004
   29  0.001  0.000  0.005  0.000  0.000  0.000  0.000  0.000  0.000  0.007
   30  0.000  0.001  0.000  0.002  0.001  0.000  0.000  0.000  0.000  0.004
   31  0.000  0.001  0.000  0.002  0.001  0.000  0.000  0.000  0.000  0.004
   32  0.001  0.000  0.005  0.000  0.000  0.000  0.000  0.000  0.000  0.007
   33  0.001  0.000  0.005  0.000  0.000  0.000  0.000  0.000  0.000  0.007
   34  0.001  0.000  0.005  0.000  0.000  0.000  0.000  0.000  0.000  0.007
   35  0.001  0.000  0.005  0.000  0.000  0.000  0.000  0.000  0.000  0.007
   36  0.001  0.000  0.005  0.000  0.000  0.000  0.000  0.000  0.000  0.007
tot    0.026  0.011  0.065  0.034  0.175  0.001  0.436  0.002  0.058  0.808
 
band    97 # energy   -1.90197336 # occ.  1.00000000
 
ion      s     py     pz     px    dxy    dyz    dz2    dxz  x2-y2    tot
    1  0.002  0.000  0.000  0.001  0.027  0.000  0.008  0.000  0.009  0.047
    2  0.001  0.000  0.000  0.000  0.001  0.000  0.064  0.000  0.000  0.066
    3  0.002  0.000  0.000  0.001  0.027  0.000  0.008  0.000  0.009  0.047
    4  0.002  0.000  0.000  0.001  0.027  0.000  0.008  0.000  0.009  0.047
    5  0.001  0.000  0.000  0.000  0.001  0.000  0.064  0.000  0.000  0.066
    6  0.001  0.000  0.000  0.000  0.001  0.000  0.064  0.000  0.000  0.066
    7  0.001  0.000  0.000  0.000  0.001  0.000  0.064  0.000  0.000  0.066
    8  0.001  0.000  0.000  0.000  0.001  0.000  0.064  0.000  0.000  0.066
    9  0.001  0.000  0.000  0.000  0.001  0.000  0.064  0.000  0.000  0.066
   10  0.002  0.000  0.000  0.001  0.027  0.000  0.008  0.000  0.009  0.047
   11  0.002  0.000  0.000  0.001  0.027  0.000  0.008  0.000  0.009  0.047
   12  0.002  0.000  0.000  0.001  0.027  0.000  0.008  0.000  0.009  0.047
   13  0.001  0.000  0.005  0.000  0.000  0.000  0.000  0.000  0.000  0.007
   14  0.001  0.000  0.005  0.000  0.000  0.000  0.000  0.000  0.000  0.007
   15  0.001  0.000  0.005  0.000  0.000  0.000  0.000  0.000  0.000  0.007
   16  0.000  0.001  0.000  0.002  0.001  0.000  0.000  0.000  0.000  0.004
   17  0.000  0.001  0.000  0.002  0.001  0.000  0.000  0.000  0.000  0.004
   18  0.001  0.000  0.005  0.000  0.000  0.000  0.000  0.000  0.000  0.007
   19  0.001  0.000  0.005  0.000  0.000  0.000  0.000  0.000  0.000  0.007
   20  0.001  0.000  0.005  0.000  0.000  0.000  0.000  0.000  0.000  0.007
   21  0.001  0.000  0.005  0.000  0.000  0.000  0.000  0.000  0.000  0.007
   22  0.001  0.000  0.005  0.000  0.000  0.000  0.000  0.000  0.000  0.007
   23  0.000  0.001  0.000  0.002  0.001  0.000  0.000  0.000  0.000  0.004
   24  0.000  0.001  0.000  0.002  0.001  0.000  0.000  0.000  0.000  0.004
   25  0.000  0.001  0.000  0.002  0.001  0.000  0.000  0.000  0.000  0.004
   26  0.000  0.001  0.000  0.002  0.001  0.000  0.000  0.000  0.000  0.004
   27  0.001  0.000  0.005  0.000  0.000  0.000  0.000  0.000  0.000  0.007
   28  0.001  0.000  0.005  0.000  0.000  0.000  0.000  0.000  0.000  0.007
   29  0.000  0.001  0.000  0.002  0.001  0.000  0.000  0.000  0.000  0.004
   30  0.001  0.000  0.005  0.000  0.000  0.000  0.000  0.000  0.000  0.007
   31  0.001  0.000  0.005  0.000  0.000  0.000  0.000  0.000  0.000  0.007
   32  0.000  0.001  0.000  0.002  0.001  0.000  0.000  0.000  0.000  0.004
   33  0.000  0.001  0.000  0.002  0.001  0.000  0.000  0.000  0.000  0.004
   34  0.000  0.001  0.000  0.002  0.001  0.000  0.000  0.000  0.000  0.004
   35  0.000  0.001  0.000  0.002  0.001  0.000  0.000  0.000  0.000  0.004
   36  0.000  0.001  0.000  0.002  0.001  0.000  0.000  0.000  0.000  0.004
tot    0.026  0.011  0.065  0.034  0.175  0.001  0.436  0.002  0.058  0.808
 
band    98 # energy   -1.87507147 # occ.  1.00000000
 
ion      s     py     pz     px    dxy    dyz    dz2    dxz  x2-y2    tot
    1  0.000  0.000  0.000  0.000  0.000  0.000  0.011  0.000  0.033  0.044
    2  0.000  0.000  0.000  0.000  0.026  0.000  0.011  0.000  0.007  0.044
    3  0.000  0.000  0.000  0.000  0.026  0.000  0.011  0.000  0.007  0.044
    4  0.000  0.000  0.000  0.000  0.030  0.000  0.045  0.000  0.010  0.084
    5  0.000  0.000  0.000  0.000  0.026  0.000  0.011  0.000  0.007  0.044
    6  0.000  0.000  0.000  0.000  0.000  0.000  0.011  0.000  0.033  0.044
    7  0.000  0.000  0.000  0.000  0.030  0.000  0.045  0.000  0.010  0.084
    8  0.000  0.000  0.000  0.000  0.000  0.000  0.011  0.000  0.033  0.044
    9  0.000  0.000  0.000  0.000  0.030  0.000  0.045  0.000  0.010  0.084
   10  0.000  0.000  0.000  0.000  0.026  0.000  0.011  0.000  0.007  0.044
   11  0.000  0.000  0.000  0.000  0.030  0.000  0.045  0.000  0.010  0.084
   12  0.000  0.000  0.000  0.000  0.000  0.000  0.011  0.000  0.033  0.044
   13  0.001  0.001  0.004  0.004  0.000  0.000  0.000  0.000  0.000  0.010
   14  0.000  0.001  0.001  0.003  0.000  0.000  0.000  0.000  0.000  0.005
   15  0.000  0.001  0.001  0.003  0.000  0.000  0.000  0.000  0.000  0.005
   16  0.000  0.003  0.001  0.000  0.000  0.000  0.000  0.000  0.000  0.005
   17  0.000  0.003  0.001  0.000  0.000  0.000  0.000  0.000  0.000  0.005
   18  0.000  0.003  0.001  0.000  0.000  0.000  0.000  0.000  0.000  0.005
   19  0.000  0.003  0.001  0.000  0.000  0.000  0.000  0.000  0.000  0.005
   20  0.001  0.001  0.004  0.004  0.000  0.000  0.000  0.000  0.000  0.010
   21  0.000  0.001  0.001  0.003  0.000  0.000  0.000  0.000  0.000  0.005
   22  0.000  0.001  0.001  0.003  0.000  0.000  0.000  0.000  0.000  0.005
   23  0.001  0.001  0.004  0.004  0.000  0.000  0.000  0.000  0.000  0.010
   24  0.001  0.001  0.004  0.004  0.000  0.000  0.000  0.000  0.000  0.010
   25  0.000  0.001  0.001  0.003  0.000  0.000  0.000  0.000  0.000  0.005
   26  0.000  0.001  0.001  0.003  0.000  0.000  0.000  0.000  0.000  0.005
   27  0.001  0.001  0.004  0.004  0.000  0.000  0.000  0.000  0.000  0.010
   28  0.001  0.001  0.004  0.004  0.000  0.000  0.000  0.000  0.000  0.010
   29  0.000  0.003  0.001  0.000  0.000  0.000  0.000  0.000  0.000  0.005
   30  0.000  0.003  0.001  0.000  0.000  0.000  0.000  0.000  0.000  0.005
   31  0.000  0.003  0.001  0.000  0.000  0.000  0.000  0.000  0.000  0.005
   32  0.000  0.003  0.001  0.000  0.000  0.000  0.000  0.000  0.000  0.005
   33  0.000  0.001  0.001  0.003  0.000  0.000  0.000  0.000  0.000  0.005
   34  0.000  0.001  0.001  0.003  0.000  0.000  0.000  0.000  0.000  0.005
   35  0.001  0.001  0.004  0.004  0.000  0.000  0.000  0.000  0.000  0.010
   36  0.001  0.001  0.004  0.004  0.000  0.000  0.000  0.000  0.000  0.010
tot    0.010  0.043  0.045  0.052  0.225  0.002  0.268  0.003  0.200  0.847
 
band    99 # energy   -1.87483291 # occ.  1.00000000
 
ion      s     py     pz     px    dxy    dyz    dz2    dxz  x2-y2    tot
    1  0.000  0.000  0.000  0.000  0.037  0.000  0.033  0.000  0.000  0.071
    2  0.000  0.000  0.000  0.000  0.011  0.000  0.033  0.000  0.026  0.071
    3  0.000  0.000  0.000  0.000  0.011  0.000  0.033  0.000  0.026  0.071
    4  0.000  0.000  0.000  0.000  0.008  0.000  0.000  0.000  0.023  0.031
    5  0.000  0.000  0.000  0.000  0.011  0.000  0.033  0.000  0.026  0.071
    6  0.000  0.000  0.000  0.000  0.037  0.000  0.033  0.000  0.000  0.071
    7  0.000  0.000  0.000  0.000  0.008  0.000  0.000  0.000  0.023  0.031
    8  0.000  0.000  0.000  0.000  0.037  0.000  0.033  0.000  0.000  0.071
    9  0.000  0.000  0.000  0.000  0.008  0.000  0.000  0.000  0.023  0.031
   10  0.000  0.000  0.000  0.000  0.011  0.000  0.033  0.000  0.026  0.071
   11  0.000  0.000  0.000  0.000  0.008  0.000  0.000  0.000  0.023  0.031
   12  0.000  0.000  0.000  0.000  0.037  0.000  0.033  0.000  0.000  0.071
   13  0.000  0.002  0.000  0.001  0.000  0.000  0.000  0.000  0.000  0.004
   14  0.001  0.003  0.003  0.001  0.000  0.000  0.000  0.000  0.000  0.008
   15  0.001  0.003  0.003  0.001  0.000  0.000  0.000  0.000  0.000  0.008
   16  0.001  0.000  0.003  0.004  0.000  0.000  0.000  0.000  0.000  0.008
   17  0.001  0.000  0.003  0.004  0.000  0.000  0.000  0.000  0.000  0.008
   18  0.001  0.000  0.003  0.004  0.000  0.000  0.000  0.000  0.000  0.008
   19  0.001  0.000  0.003  0.004  0.000  0.000  0.000  0.000  0.000  0.008
   20  0.000  0.002  0.000  0.001  0.000  0.000  0.000  0.000  0.000  0.004
   21  0.001  0.003  0.003  0.001  0.000  0.000  0.000  0.000  0.000  0.008
   22  0.001  0.003  0.003  0.001  0.000  0.000  0.000  0.000  0.000  0.008
   23  0.000  0.002  0.000  0.001  0.000  0.000  0.000  0.000  0.000  0.004
   24  0.000  0.002  0.000  0.001  0.000  0.000  0.000  0.000  0.000  0.004
   25  0.001  0.003  0.003  0.001  0.000  0.000  0.000  0.000  0.000  0.008
   26  0.001  0.003  0.003  0.001  0.000  0.000  0.000  0.000  0.000  0.008
   27  0.000  0.002  0.000  0.001  0.000  0.000  0.000  0.000  0.000  0.004
   28  0.000  0.002  0.000  0.001  0.000  0.000  0.000  0.000  0.000  0.004
   29  0.001  0.000  0.003  0.004  0.000  0.000  0.000  0.000  0.000  0.008
   30  0.001  0.000  0.003  0.004  0.000  0.000  0.000  0.000  0.000  0.008
   31  0.001  0.000  0.003  0.004  0.000  0.000  0.000  0.000  0.000  0.008
   32  0.001  0.000  0.003  0.004  0.000  0.000  0.000  0.000  0.000  0.008
   33  0.001  0.003  0.003  0.001  0.000  0.000  0.000  0.000  0.000  0.008
   34  0.001  0.003  0.003  0.001  0.000  0.000  0.000  0.000  0.000  0.008
   35  0.000  0.002  0.000  0.001  0.000  0.000  0.000  0.000  0.000  0.004
   36  0.000  0.002  0.000  0.001  0.000  0.000  0.000  0.000  0.000  0.004
tot    0.010  0.043  0.045  0.052  0.225  0.002  0.268  0.003  0.200  0.847
 
band   100 # energy   -1.81642004 # occ.  1.00000000
 
ion      s     py     pz     px    dxy    dyz    dz2    dxz  x2-y2    tot
    1  0.000  0.002  0.000  0.006  0.009  0.000  0.023  0.000  0.003  0.043
    2  0.000  0.002  0.000  0.006  0.009  0.000  0.023  0.000  0.003  0.043
    3  0.000  0.002  0.000  0.006  0.009  0.000  0.023  0.000  0.003  0.043
    4  0.000  0.002  0.000  0.006  0.009  0.000  0.023  0.000  0.003  0.043
    5  0.000  0.002  0.000  0.006  0.009  0.000  0.023  0.000  0.003  0.043
    6  0.000  0.002  0.000  0.006  0.009  0.000  0.023  0.000  0.003  0.043
    7  0.000  0.002  0.000  0.006  0.009  0.000  0.023  0.000  0.003  0.043
    8  0.000  0.002  0.000  0.006  0.009  0.000  0.023  0.000  0.003  0.043
    9  0.000  0.002  0.000  0.006  0.009  0.000  0.023  0.000  0.003  0.043
   10  0.000  0.002  0.000  0.006  0.009  0.000  0.023  0.000  0.003  0.043
   11  0.000  0.002  0.000  0.006  0.009  0.000  0.023  0.000  0.003  0.043
   12  0.000  0.002  0.000  0.006  0.009  0.000  0.023  0.000  0.003  0.043
   13  0.000  0.000  0.006  0.000  0.000  0.000  0.000  0.000  0.000  0.008
   14  0.000  0.000  0.006  0.000  0.000  0.000  0.000  0.000  0.000  0.008
   15  0.000  0.000  0.006  0.000  0.000  0.000  0.000  0.000  0.000  0.008
   16  0.000  0.000  0.006  0.000  0.000  0.000  0.000  0.000  0.000  0.008
   17  0.000  0.000  0.006  0.000  0.000  0.000  0.000  0.000  0.000  0.008
   18  0.000  0.000  0.006  0.000  0.000  0.000  0.000  0.000  0.000  0.008
   19  0.000  0.000  0.006  0.000  0.000  0.000  0.000  0.000  0.000  0.008
   20  0.000  0.000  0.006  0.000  0.000  0.000  0.000  0.000  0.000  0.008
   21  0.000  0.000  0.006  0.000  0.000  0.000  0.000  0.000  0.000  0.008
   22  0.000  0.000  0.006  0.000  0.000  0.000  0.000  0.000  0.000  0.008
   23  0.000  0.000  0.006  0.000  0.000  0.000  0.000  0.000  0.000  0.008
   24  0.000  0.000  0.006  0.000  0.000  0.000  0.000  0.000  0.000  0.008
   25  0.000  0.000  0.006  0.000  0.000  0.000  0.000  0.000  0.000  0.008
   26  0.000  0.000  0.006  0.000  0.000  0.000  0.000  0.000  0.000  0.008
   27  0.000  0.000  0.006  0.000  0.000  0.000  0.000  0.000  0.000  0.008
   28  0.000  0.000  0.006  0.000  0.000  0.000  0.000  0.000  0.000  0.008
   29  0.000  0.000  0.006  0.000  0.000  0.000  0.000  0.000  0.000  0.008
   30  0.000  0.000  0.006  0.000  0.000  0.000  0.000  0.000  0.000  0.008
   31  0.000  0.000  0.006  0.000  0.000  0.000  0.000  0.000  0.000  0.008
   32  0.000  0.000  0.006  0.000  0.000  0.000  0.000  0.000  0.000  0.008
   33  0.000  0.000  0.006  0.000  0.000  0.000  0.000  0.000  0.000  0.008
   34  0.000  0.000  0.006  0.000  0.000  0.000  0.000  0.000  0.000  0.008
   35  0.000  0.000  0.006  0.000  0.000  0.000  0.000  0.000  0.000  0.008
   36  0.000  0.000  0.006  0.000  0.000  0.000  0.000  0.000  0.000  0.008
tot    0.010  0.024  0.155  0.073  0.117  0.001  0.274  0.002  0.039  0.695
 
band   101 # energy   -1.80850066 # occ.  1.00000000
 
ion      s     py     pz     px    dxy    dyz    dz2    dxz  x2-y2    tot
    1  0.000  0.004  0.000  0.001  0.002  0.000  0.000  0.000  0.006  0.013
    2  0.000  0.004  0.000  0.001  0.002  0.000  0.000  0.000  0.006  0.013
    3  0.000  0.004  0.000  0.001  0.002  0.000  0.000  0.000  0.006  0.013
    4  0.000  0.004  0.000  0.001  0.002  0.000  0.000  0.000  0.006  0.013
    5  0.000  0.004  0.000  0.001  0.002  0.000  0.000  0.000  0.006  0.013
    6  0.000  0.004  0.000  0.001  0.002  0.000  0.000  0.000  0.006  0.013
    7  0.000  0.004  0.000  0.001  0.002  0.000  0.000  0.000  0.006  0.013
    8  0.000  0.004  0.000  0.001  0.002  0.000  0.000  0.000  0.006  0.013
    9  0.000  0.004  0.000  0.001  0.002  0.000  0.000  0.000  0.006  0.013
   10  0.000  0.004  0.000  0.001  0.002  0.000  0.000  0.000  0.006  0.013
   11  0.000  0.004  0.000  0.001  0.002  0.000  0.000  0.000  0.006  0.013
   12  0.000  0.004  0.000  0.001  0.002  0.000  0.000  0.000  0.006  0.013
   13  0.000  0.017  0.000  0.006  0.000  0.000  0.000  0.000  0.000  0.023
   14  0.000  0.017  0.000  0.006  0.000  0.000  0.000  0.000  0.000  0.023
   15  0.000  0.017  0.000  0.006  0.000  0.000  0.000  0.000  0.000  0.023
   16  0.000  0.017  0.000  0.006  0.000  0.000  0.000  0.000  0.000  0.023
   17  0.000  0.017  0.000  0.006  0.000  0.000  0.000  0.000  0.000  0.023
   18  0.000  0.017  0.000  0.006  0.000  0.000  0.000  0.000  0.000  0.023
   19  0.000  0.017  0.000  0.006  0.000  0.000  0.000  0.000  0.000  0.023
   20  0.000  0.017  0.000  0.006  0.000  0.000  0.000  0.000  0.000  0.023
   21  0.000  0.017  0.000  0.006  0.000  0.000  0.000  0.000  0.000  0.023
   22  0.000  0.017  0.000  0.006  0.000  0.000  0.000  0.000  0.000  0.023
   23  0.000  0.017  0.000  0.006  0.000  0.000  0.000  0.000  0.000  0.023
   24  0.000  0.017  0.000  0.006  0.000  0.000  0.000  0.000  0.000  0.023
   25  0.000  0.017  0.000  0.006  0.000  0.000  0.000  0.000  0.000  0.023
   26  0.000  0.017  0.000  0.006  0.000  0.000  0.000  0.000  0.000  0.023
   27  0.000  0.017  0.000  0.006  0.000  0.000  0.000  0.000  0.000  0.023
   28  0.000  0.017  0.000  0.006  0.000  0.000  0.000  0.000  0.000  0.023
   29  0.000  0.017  0.000  0.006  0.000  0.000  0.000  0.000  0.000  0.023
   30  0.000  0.017  0.000  0.006  0.000  0.000  0.000  0.000  0.000  0.023
   31  0.000  0.017  0.000  0.006  0.000  0.000  0.000  0.000  0.000  0.023
   32  0.000  0.017  0.000  0.006  0.000  0.000  0.000  0.000  0.000  0.023
   33  0.000  0.017  0.000  0.006  0.000  0.000  0.000  0.000  0.000  0.023
   34  0.000  0.017  0.000  0.006  0.000  0.000  0.000  0.000  0.000  0.023
   35  0.000  0.017  0.000  0.006  0.000  0.000  0.000  0.000  0.000  0.023
   36  0.000  0.017  0.000  0.006  0.000  0.000  0.000  0.000  0.000  0.023
tot    0.000  0.466  0.000  0.155  0.022  0.003  0.000  0.001  0.067  0.715
 
band   102 # energy   -1.74376360 # occ.  1.00000000
 
ion      s     py     pz     px    dxy    dyz    dz2    dxz  x2-y2    tot
    1  0.001  0.000  0.000  0.006  0.006  0.000  0.024  0.000  0.036  0.074
    2  0.000  0.000  0.000  0.000  0.005  0.000  0.014  0.000  0.001  0.020
    3  0.001  0.004  0.000  0.003  0.042  0.000  0.023  0.000  0.001  0.074
    4  0.000  0.002  0.000  0.001  0.015  0.000  0.000  0.000  0.047  0.064
    5  0.000  0.000  0.000  0.000  0.005  0.000  0.014  0.000  0.001  0.020
    6  0.000  0.000  0.000  0.000  0.000  0.000  0.014  0.000  0.005  0.020
    7  0.000  0.000  0.000  0.000  0.003  0.000  0.000  0.000  0.009  0.012
    8  0.000  0.000  0.000  0.000  0.000  0.000  0.014  0.000  0.005  0.020
    9  0.000  0.000  0.000  0.000  0.003  0.000  0.000  0.000  0.009  0.012
   10  0.001  0.004  0.000  0.003  0.042  0.000  0.023  0.000  0.001  0.074
   11  0.000  0.002  0.000  0.001  0.015  0.000  0.000  0.000  0.047  0.064
   12  0.001  0.000  0.000  0.006  0.006  0.000  0.024  0.000  0.036  0.074
   13  0.000  0.002  0.000  0.001  0.000  0.000  0.000  0.000  0.000  0.003
   14  0.000  0.002  0.004  0.017  0.000  0.000  0.000  0.000  0.000  0.023
   15  0.000  0.002  0.004  0.017  0.000  0.000  0.000  0.000  0.000  0.023
   16  0.000  0.002  0.001  0.000  0.000  0.000  0.000  0.000  0.000  0.004
   17  0.000  0.002  0.001  0.000  0.000  0.000  0.000  0.000  0.000  0.004
   18  0.000  0.008  0.004  0.011  0.000  0.000  0.000  0.000  0.000  0.023
   19  0.000  0.008  0.004  0.011  0.000  0.000  0.000  0.000  0.000  0.023
   20  0.000  0.002  0.000  0.001  0.000  0.000  0.000  0.000  0.000  0.003
   21  0.000  0.002  0.004  0.017  0.000  0.000  0.000  0.000  0.000  0.023
   22  0.000  0.002  0.004  0.017  0.000  0.000  0.000  0.000  0.000  0.023
   23  0.000  0.006  0.000  0.002  0.000  0.000  0.000  0.000  0.000  0.009
   24  0.000  0.006  0.000  0.002  0.000  0.000  0.000  0.000  0.000  0.009
   25  0.000  0.001  0.001  0.001  0.000  0.000  0.000  0.000  0.000  0.004
   26  0.000  0.001  0.001  0.001  0.000  0.000  0.000  0.000  0.000  0.004
   27  0.000  0.002  0.000  0.001  0.000  0.000  0.000  0.000  0.000  0.003
   28  0.000  0.002  0.000  0.001  0.000  0.000  0.000  0.000  0.000  0.003
   29  0.000  0.002  0.001  0.000  0.000  0.000  0.000  0.000  0.000  0.004
   30  0.000  0.008  0.004  0.011  0.000  0.000  0.000  0.000  0.000  0.023
   31  0.000  0.008  0.004  0.011  0.000  0.000  0.000  0.000  0.000  0.023
   32  0.000  0.002  0.001  0.000  0.000  0.000  0.000  0.000  0.000  0.004
   33  0.000  0.001  0.001  0.001  0.000  0.000  0.000  0.000  0.000  0.004
   34  0.000  0.001  0.001  0.001  0.000  0.000  0.000  0.000  0.000  0.004
   35  0.000  0.006  0.000  0.002  0.000  0.000  0.000  0.000  0.000  0.009
   36  0.000  0.006  0.000  0.002  0.000  0.000  0.000  0.000  0.000  0.009
tot    0.006  0.097  0.039  0.145  0.146  0.003  0.151  0.002  0.198  0.787
 
band   103 # energy   -1.74364608 # occ.  1.00000000
 
ion      s     py     pz     px    dxy    dyz    dz2    dxz  x2-y2    tot
    1  0.000  0.003  0.000  0.000  0.036  0.000  0.008  0.000  0.020  0.067
    2  0.000  0.000  0.000  0.000  0.000  0.000  0.005  0.000  0.009  0.015
    3  0.000  0.000  0.000  0.004  0.001  0.000  0.008  0.000  0.055  0.068
    4  0.001  0.002  0.000  0.006  0.027  0.000  0.031  0.000  0.009  0.077
    5  0.000  0.000  0.000  0.000  0.000  0.000  0.005  0.000  0.009  0.015
    6  0.000  0.000  0.000  0.000  0.005  0.000  0.005  0.000  0.005  0.015
    7  0.000  0.000  0.000  0.000  0.002  0.000  0.019  0.000  0.001  0.023
    8  0.000  0.000  0.000  0.000  0.005  0.000  0.005  0.000  0.005  0.015
    9  0.000  0.000  0.000  0.000  0.002  0.000  0.019  0.000  0.001  0.023
   10  0.000  0.000  0.000  0.004  0.001  0.000  0.008  0.000  0.055  0.068
   11  0.001  0.002  0.000  0.006  0.027  0.000  0.031  0.000  0.009  0.077
   12  0.000  0.003  0.000  0.000  0.036  0.000  0.008  0.000  0.020  0.067
   13  0.000  0.006  0.005  0.018  0.000  0.000  0.000  0.000  0.000  0.029
   14  0.000  0.006  0.001  0.002  0.000  0.000  0.000  0.000  0.000  0.009
   15  0.000  0.006  0.001  0.002  0.000  0.000  0.000  0.000  0.000  0.009
   16  0.000  0.004  0.000  0.002  0.000  0.000  0.000  0.000  0.000  0.007
   17  0.000  0.004  0.000  0.002  0.000  0.000  0.000  0.000  0.000  0.007
   18  0.000  0.000  0.001  0.008  0.000  0.000  0.000  0.000  0.000  0.010
   19  0.000  0.000  0.001  0.008  0.000  0.000  0.000  0.000  0.000  0.010
   20  0.000  0.006  0.005  0.018  0.000  0.000  0.000  0.000  0.000  0.029
   21  0.000  0.006  0.001  0.002  0.000  0.000  0.000  0.000  0.000  0.009
   22  0.000  0.006  0.001  0.002  0.000  0.000  0.000  0.000  0.000  0.009
   23  0.000  0.000  0.002  0.000  0.000  0.000  0.000  0.000  0.000  0.002
   24  0.000  0.000  0.002  0.000  0.000  0.000  0.000  0.000  0.000  0.002
   25  0.000  0.005  0.000  0.001  0.000  0.000  0.000  0.000  0.000  0.007
   26  0.000  0.005  0.000  0.001  0.000  0.000  0.000  0.000  0.000  0.007
   27  0.000  0.006  0.005  0.018  0.000  0.000  0.000  0.000  0.000  0.029
   28  0.000  0.006  0.005  0.018  0.000  0.000  0.000  0.000  0.000  0.029
   29  0.000  0.004  0.000  0.002  0.000  0.000  0.000  0.000  0.000  0.007
   30  0.000  0.000  0.001  0.008  0.000  0.000  0.000  0.000  0.000  0.010
   31  0.000  0.000  0.001  0.008  0.000  0.000  0.000  0.000  0.000  0.010
   32  0.000  0.004  0.000  0.002  0.000  0.000  0.000  0.000  0.000  0.007
   33  0.000  0.005  0.000  0.001  0.000  0.000  0.000  0.000  0.000  0.007
   34  0.000  0.005  0.000  0.001  0.000  0.000  0.000  0.000  0.000  0.007
   35  0.000  0.000  0.002  0.000  0.000  0.000  0.000  0.000  0.000  0.002
   36  0.000  0.000  0.002  0.000  0.000  0.000  0.000  0.000  0.000  0.002
tot    0.006  0.097  0.039  0.145  0.146  0.003  0.151  0.002  0.199  0.787
 
band   104 # energy   -1.74349461 # occ.  1.00000000
 
ion      s     py     pz     px    dxy    dyz    dz2    dxz  x2-y2    tot
    1  0.000  0.000  0.000  0.000  0.000  0.000  0.014  0.000  0.005  0.020
    2  0.001  0.004  0.000  0.003  0.042  0.000  0.024  0.000  0.001  0.074
    3  0.000  0.000  0.000  0.000  0.005  0.000  0.014  0.000  0.000  0.020
    4  0.000  0.000  0.000  0.000  0.003  0.000  0.000  0.000  0.009  0.012
    5  0.001  0.004  0.000  0.003  0.042  0.000  0.024  0.000  0.001  0.074
    6  0.001  0.000  0.000  0.006  0.006  0.000  0.023  0.000  0.036  0.074
    7  0.000  0.002  0.000  0.001  0.016  0.000  0.000  0.000  0.047  0.064
    8  0.001  0.000  0.000  0.006  0.006  0.000  0.023  0.000  0.036  0.074
    9  0.000  0.002  0.000  0.001  0.016  0.000  0.000  0.000  0.047  0.064
   10  0.000  0.000  0.000  0.000  0.005  0.000  0.014  0.000  0.000  0.020
   11  0.000  0.000  0.000  0.000  0.003  0.000  0.000  0.000  0.009  0.012
   12  0.000  0.000  0.000  0.000  0.000  0.000  0.014  0.000  0.005  0.020
   13  0.000  0.006  0.000  0.002  0.000  0.000  0.000  0.000  0.000  0.009
   14  0.000  0.001  0.001  0.001  0.000  0.000  0.000  0.000  0.000  0.004
   15  0.000  0.001  0.001  0.001  0.000  0.000  0.000  0.000  0.000  0.004
   16  0.000  0.008  0.004  0.011  0.000  0.000  0.000  0.000  0.000  0.023
   17  0.000  0.008  0.004  0.011  0.000  0.000  0.000  0.000  0.000  0.023
   18  0.000  0.002  0.001  0.000  0.000  0.000  0.000  0.000  0.000  0.004
   19  0.000  0.002  0.001  0.000  0.000  0.000  0.000  0.000  0.000  0.004
   20  0.000  0.006  0.000  0.002  0.000  0.000  0.000  0.000  0.000  0.009
   21  0.000  0.001  0.001  0.001  0.000  0.000  0.000  0.000  0.000  0.004
   22  0.000  0.001  0.001  0.001  0.000  0.000  0.000  0.000  0.000  0.004
   23  0.000  0.002  0.000  0.001  0.000  0.000  0.000  0.000  0.000  0.003
   24  0.000  0.002  0.000  0.001  0.000  0.000  0.000  0.000  0.000  0.003
   25  0.000  0.002  0.004  0.017  0.000  0.000  0.000  0.000  0.000  0.023
   26  0.000  0.002  0.004  0.017  0.000  0.000  0.000  0.000  0.000  0.023
   27  0.000  0.006  0.000  0.002  0.000  0.000  0.000  0.000  0.000  0.009
   28  0.000  0.006  0.000  0.002  0.000  0.000  0.000  0.000  0.000  0.009
   29  0.000  0.008  0.004  0.011  0.000  0.000  0.000  0.000  0.000  0.023
   30  0.000  0.002  0.001  0.000  0.000  0.000  0.000  0.000  0.000  0.004
   31  0.000  0.002  0.001  0.000  0.000  0.000  0.000  0.000  0.000  0.004
   32  0.000  0.008  0.004  0.011  0.000  0.000  0.000  0.000  0.000  0.023
   33  0.000  0.002  0.004  0.017  0.000  0.000  0.000  0.000  0.000  0.023
   34  0.000  0.002  0.004  0.017  0.000  0.000  0.000  0.000  0.000  0.023
   35  0.000  0.002  0.000  0.001  0.000  0.000  0.000  0.000  0.000  0.003
   36  0.000  0.002  0.000  0.001  0.000  0.000  0.000  0.000  0.000  0.003
tot    0.006  0.096  0.039  0.146  0.146  0.003  0.151  0.002  0.198  0.787
 
band   105 # energy   -1.74338068 # occ.  1.00000000
 
ion      s     py     pz     px    dxy    dyz    dz2    dxz  x2-y2    tot
    1  0.000  0.000  0.000  0.000  0.005  0.000  0.005  0.000  0.005  0.015
    2  0.000  0.000  0.000  0.004  0.001  0.000  0.008  0.000  0.055  0.068
    3  0.000  0.000  0.000  0.000  0.001  0.000  0.005  0.000  0.009  0.014
    4  0.000  0.000  0.000  0.000  0.002  0.000  0.019  0.000  0.001  0.022
    5  0.000  0.000  0.000  0.004  0.001  0.000  0.008  0.000  0.055  0.068
    6  0.000  0.003  0.000  0.000  0.036  0.000  0.008  0.000  0.019  0.068
    7  0.001  0.002  0.000  0.006  0.027  0.000  0.031  0.000  0.009  0.077
    8  0.000  0.003  0.000  0.000  0.036  0.000  0.008  0.000  0.019  0.068
    9  0.001  0.002  0.000  0.006  0.027  0.000  0.031  0.000  0.009  0.077
   10  0.000  0.000  0.000  0.000  0.001  0.000  0.005  0.000  0.009  0.014
   11  0.000  0.000  0.000  0.000  0.002  0.000  0.019  0.000  0.001  0.022
   12  0.000  0.000  0.000  0.000  0.005  0.000  0.005  0.000  0.005  0.015
   13  0.000  0.000  0.002  0.000  0.000  0.000  0.000  0.000  0.000  0.002
   14  0.000  0.005  0.000  0.001  0.000  0.000  0.000  0.000  0.000  0.007
   15  0.000  0.005  0.000  0.001  0.000  0.000  0.000  0.000  0.000  0.007
   16  0.000  0.000  0.001  0.008  0.000  0.000  0.000  0.000  0.000  0.009
   17  0.000  0.000  0.001  0.008  0.000  0.000  0.000  0.000  0.000  0.009
   18  0.000  0.004  0.000  0.002  0.000  0.000  0.000  0.000  0.000  0.007
   19  0.000  0.004  0.000  0.002  0.000  0.000  0.000  0.000  0.000  0.007
   20  0.000  0.000  0.002  0.000  0.000  0.000  0.000  0.000  0.000  0.002
   21  0.000  0.005  0.000  0.001  0.000  0.000  0.000  0.000  0.000  0.007
   22  0.000  0.005  0.000  0.001  0.000  0.000  0.000  0.000  0.000  0.007
   23  0.000  0.006  0.005  0.018  0.000  0.000  0.000  0.000  0.000  0.029
   24  0.000  0.006  0.005  0.018  0.000  0.000  0.000  0.000  0.000  0.029
   25  0.000  0.006  0.001  0.002  0.000  0.000  0.000  0.000  0.000  0.010
   26  0.000  0.006  0.001  0.002  0.000  0.000  0.000  0.000  0.000  0.010
   27  0.000  0.000  0.002  0.000  0.000  0.000  0.000  0.000  0.000  0.002
   28  0.000  0.000  0.002  0.000  0.000  0.000  0.000  0.000  0.000  0.002
   29  0.000  0.000  0.001  0.008  0.000  0.000  0.000  0.000  0.000  0.009
   30  0.000  0.004  0.000  0.002  0.000  0.000  0.000  0.000  0.000  0.007
   31  0.000  0.004  0.000  0.002  0.000  0.000  0.000  0.000  0.000  0.007
   32  0.000  0.000  0.001  0.008  0.000  0.000  0.000  0.000  0.000  0.009
   33  0.000  0.006  0.001  0.002  0.000  0.000  0.000  0.000  0.000  0.010
   34  0.000  0.006  0.001  0.002  0.000  0.000  0.000  0.000  0.000  0.010
   35  0.000  0.006  0.005  0.018  0.000  0.000  0.000  0.000  0.000  0.029
   36  0.000  0.006  0.005  0.018  0.000  0.000  0.000  0.000  0.000  0.029
tot    0.006  0.097  0.039  0.146  0.146  0.003  0.151  0.002  0.198  0.787
 
band   106 # energy   -1.40297954 # occ.  1.00000000
 
ion      s     py     pz     px    dxy    dyz    dz2    dxz  x2-y2    tot
    1  0.001  0.000  0.000  0.000  0.000  0.000  0.053  0.000  0.000  0.054
    2  0.001  0.000  0.000  0.000  0.000  0.000  0.053  0.000  0.000  0.054
    3  0.001  0.000  0.000  0.000  0.000  0.000  0.053  0.000  0.000  0.054
    4  0.001  0.000  0.000  0.000  0.000  0.000  0.053  0.000  0.000  0.054
    5  0.001  0.000  0.000  0.000  0.000  0.000  0.053  0.000  0.000  0.054
    6  0.001  0.000  0.000  0.000  0.000  0.000  0.053  0.000  0.000  0.054
    7  0.001  0.000  0.000  0.000  0.000  0.000  0.053  0.000  0.000  0.054
    8  0.001  0.000  0.000  0.000  0.000  0.000  0.053  0.000  0.000  0.054
    9  0.001  0.000  0.000  0.000  0.000  0.000  0.053  0.000  0.000  0.054
   10  0.001  0.000  0.000  0.000  0.000  0.000  0.053  0.000  0.000  0.054
   11  0.001  0.000  0.000  0.000  0.000  0.000  0.053  0.000  0.000  0.054
   12  0.001  0.000  0.000  0.000  0.000  0.000  0.053  0.000  0.000  0.054
   13  0.000  0.000  0.005  0.000  0.000  0.000  0.001  0.000  0.000  0.006
   14  0.000  0.000  0.005  0.000  0.000  0.000  0.001  0.000  0.000  0.006
   15  0.000  0.000  0.005  0.000  0.000  0.000  0.001  0.000  0.000  0.006
   16  0.000  0.000  0.005  0.000  0.000  0.000  0.001  0.000  0.000  0.006
   17  0.000  0.000  0.005  0.000  0.000  0.000  0.001  0.000  0.000  0.006
   18  0.000  0.000  0.005  0.000  0.000  0.000  0.001  0.000  0.000  0.006
   19  0.000  0.000  0.005  0.000  0.000  0.000  0.001  0.000  0.000  0.006
   20  0.000  0.000  0.005  0.000  0.000  0.000  0.001  0.000  0.000  0.006
   21  0.000  0.000  0.005  0.000  0.000  0.000  0.001  0.000  0.000  0.006
   22  0.000  0.000  0.005  0.000  0.000  0.000  0.001  0.000  0.000  0.006
   23  0.000  0.000  0.005  0.000  0.000  0.000  0.001  0.000  0.000  0.006
   24  0.000  0.000  0.005  0.000  0.000  0.000  0.001  0.000  0.000  0.006
   25  0.000  0.000  0.005  0.000  0.000  0.000  0.001  0.000  0.000  0.006
   26  0.000  0.000  0.005  0.000  0.000  0.000  0.001  0.000  0.000  0.006
   27  0.000  0.000  0.005  0.000  0.000  0.000  0.001  0.000  0.000  0.006
   28  0.000  0.000  0.005  0.000  0.000  0.000  0.001  0.000  0.000  0.006
   29  0.000  0.000  0.005  0.000  0.000  0.000  0.001  0.000  0.000  0.006
   30  0.000  0.000  0.005  0.000  0.000  0.000  0.001  0.000  0.000  0.006
   31  0.000  0.000  0.005  0.000  0.000  0.000  0.001  0.000  0.000  0.006
   32  0.000  0.000  0.005  0.000  0.000  0.000  0.001  0.000  0.000  0.006
   33  0.000  0.000  0.005  0.000  0.000  0.000  0.001  0.000  0.000  0.006
   34  0.000  0.000  0.005  0.000  0.000  0.000  0.001  0.000  0.000  0.006
   35  0.000  0.000  0.005  0.000  0.000  0.000  0.001  0.000  0.000  0.006
   36  0.000  0.000  0.005  0.000  0.000  0.000  0.001  0.000  0.000  0.006
tot    0.017  0.000  0.115  0.000  0.000  0.000  0.649  0.000  0.000  0.781
 
band   107 # energy   -1.11928716 # occ.  1.00000000
 
ion      s     py     pz     px    dxy    dyz    dz2    dxz  x2-y2    tot
    1  0.000  0.000  0.000  0.000  0.015  0.000  0.000  0.000  0.045  0.060
    2  0.000  0.000  0.000  0.000  0.059  0.000  0.000  0.000  0.000  0.060
    3  0.000  0.000  0.000  0.000  0.059  0.000  0.000  0.000  0.000  0.060
    4  0.000  0.000  0.000  0.000  0.015  0.000  0.000  0.000  0.044  0.060
    5  0.000  0.000  0.000  0.000  0.059  0.000  0.000  0.000  0.000  0.060
    6  0.000  0.000  0.000  0.000  0.015  0.000  0.000  0.000  0.045  0.060
    7  0.000  0.000  0.000  0.000  0.015  0.000  0.000  0.000  0.044  0.060
    8  0.000  0.000  0.000  0.000  0.015  0.000  0.000  0.000  0.045  0.060
    9  0.000  0.000  0.000  0.000  0.015  0.000  0.000  0.000  0.044  0.060
   10  0.000  0.000  0.000  0.000  0.059  0.000  0.000  0.000  0.000  0.060
   11  0.000  0.000  0.000  0.000  0.015  0.000  0.000  0.000  0.044  0.060
   12  0.000  0.000  0.000  0.000  0.015  0.000  0.000  0.000  0.045  0.060
   13  0.000  0.003  0.000  0.001  0.000  0.000  0.000  0.000  0.000  0.005
   14  0.000  0.000  0.000  0.005  0.000  0.000  0.000  0.000  0.000  0.005
   15  0.000  0.000  0.000  0.005  0.000  0.000  0.000  0.000  0.000  0.005
   16  0.000  0.004  0.000  0.001  0.000  0.000  0.000  0.000  0.000  0.005
   17  0.000  0.004  0.000  0.001  0.000  0.000  0.000  0.000  0.000  0.005
   18  0.000  0.004  0.000  0.001  0.000  0.000  0.000  0.000  0.000  0.005
   19  0.000  0.004  0.000  0.001  0.000  0.000  0.000  0.000  0.000  0.005
   20  0.000  0.003  0.000  0.001  0.000  0.000  0.000  0.000  0.000  0.005
   21  0.000  0.000  0.000  0.005  0.000  0.000  0.000  0.000  0.000  0.005
   22  0.000  0.000  0.000  0.005  0.000  0.000  0.000  0.000  0.000  0.005
   23  0.000  0.003  0.000  0.001  0.000  0.000  0.000  0.000  0.000  0.005
   24  0.000  0.003  0.000  0.001  0.000  0.000  0.000  0.000  0.000  0.005
   25  0.000  0.000  0.000  0.005  0.000  0.000  0.000  0.000  0.000  0.005
   26  0.000  0.000  0.000  0.005  0.000  0.000  0.000  0.000  0.000  0.005
   27  0.000  0.003  0.000  0.001  0.000  0.000  0.000  0.000  0.000  0.005
   28  0.000  0.003  0.000  0.001  0.000  0.000  0.000  0.000  0.000  0.005
   29  0.000  0.004  0.000  0.001  0.000  0.000  0.000  0.000  0.000  0.005
   30  0.000  0.004  0.000  0.001  0.000  0.000  0.000  0.000  0.000  0.005
   31  0.000  0.004  0.000  0.001  0.000  0.000  0.000  0.000  0.000  0.005
   32  0.000  0.004  0.000  0.001  0.000  0.000  0.000  0.000  0.000  0.005
   33  0.000  0.000  0.000  0.005  0.000  0.000  0.000  0.000  0.000  0.005
   34  0.000  0.000  0.000  0.005  0.000  0.000  0.000  0.000  0.000  0.005
   35  0.000  0.003  0.000  0.001  0.000  0.000  0.000  0.000  0.000  0.005
   36  0.000  0.003  0.000  0.001  0.000  0.000  0.000  0.000  0.000  0.005
tot    0.000  0.058  0.000  0.059  0.358  0.000  0.000  0.000  0.358  0.834
 
band   108 # energy   -1.11928129 # occ.  1.00000000
 
ion      s     py     pz     px    dxy    dyz    dz2    dxz  x2-y2    tot
    1  0.000  0.000  0.000  0.000  0.045  0.000  0.000  0.000  0.015  0.060
    2  0.000  0.000  0.000  0.000  0.000  0.000  0.000  0.000  0.059  0.060
    3  0.000  0.000  0.000  0.000  0.000  0.000  0.000  0.000  0.059  0.060
    4  0.000  0.000  0.000  0.000  0.044  0.000  0.000  0.000  0.015  0.060
    5  0.000  0.000  0.000  0.000  0.000  0.000  0.000  0.000  0.059  0.060
    6  0.000  0.000  0.000  0.000  0.045  0.000  0.000  0.000  0.015  0.060
    7  0.000  0.000  0.000  0.000  0.044  0.000  0.000  0.000  0.015  0.060
    8  0.000  0.000  0.000  0.000  0.045  0.000  0.000  0.000  0.015  0.060
    9  0.000  0.000  0.000  0.000  0.044  0.000  0.000  0.000  0.015  0.060
   10  0.000  0.000  0.000  0.000  0.000  0.000  0.000  0.000  0.059  0.060
   11  0.000  0.000  0.000  0.000  0.044  0.000  0.000  0.000  0.015  0.060
   12  0.000  0.000  0.000  0.000  0.045  0.000  0.000  0.000  0.015  0.060
   13  0.000  0.001  0.000  0.004  0.000  0.000  0.000  0.000  0.000  0.005
   14  0.000  0.005  0.000  0.000  0.000  0.000  0.000  0.000  0.000  0.005
   15  0.000  0.005  0.000  0.000  0.000  0.000  0.000  0.000  0.000  0.005
   16  0.000  0.001  0.000  0.004  0.000  0.000  0.000  0.000  0.000  0.005
   17  0.000  0.001  0.000  0.004  0.000  0.000  0.000  0.000  0.000  0.005
   18  0.000  0.001  0.000  0.004  0.000  0.000  0.000  0.000  0.000  0.005
   19  0.000  0.001  0.000  0.004  0.000  0.000  0.000  0.000  0.000  0.005
   20  0.000  0.001  0.000  0.004  0.000  0.000  0.000  0.000  0.000  0.005
   21  0.000  0.005  0.000  0.000  0.000  0.000  0.000  0.000  0.000  0.005
   22  0.000  0.005  0.000  0.000  0.000  0.000  0.000  0.000  0.000  0.005
   23  0.000  0.001  0.000  0.004  0.000  0.000  0.000  0.000  0.000  0.005
   24  0.000  0.001  0.000  0.004  0.000  0.000  0.000  0.000  0.000  0.005
   25  0.000  0.005  0.000  0.000  0.000  0.000  0.000  0.000  0.000  0.005
   26  0.000  0.005  0.000  0.000  0.000  0.000  0.000  0.000  0.000  0.005
   27  0.000  0.001  0.000  0.004  0.000  0.000  0.000  0.000  0.000  0.005
   28  0.000  0.001  0.000  0.004  0.000  0.000  0.000  0.000  0.000  0.005
   29  0.000  0.001  0.000  0.004  0.000  0.000  0.000  0.000  0.000  0.005
   30  0.000  0.001  0.000  0.004  0.000  0.000  0.000  0.000  0.000  0.005
   31  0.000  0.001  0.000  0.004  0.000  0.000  0.000  0.000  0.000  0.005
   32  0.000  0.001  0.000  0.004  0.000  0.000  0.000  0.000  0.000  0.005
   33  0.000  0.005  0.000  0.000  0.000  0.000  0.000  0.000  0.000  0.005
   34  0.000  0.005  0.000  0.000  0.000  0.000  0.000  0.000  0.000  0.005
   35  0.000  0.001  0.000  0.004  0.000  0.000  0.000  0.000  0.000  0.005
   36  0.000  0.001  0.000  0.004  0.000  0.000  0.000  0.000  0.000  0.005
tot    0.000  0.058  0.000  0.059  0.358  0.000  0.000  0.000  0.358  0.834
 
band   109 # energy    0.29664465 # occ.  0.00000000
 
ion      s     py     pz     px    dxy    dyz    dz2    dxz  x2-y2    tot
    1  0.006  0.000  0.000  0.000  0.000  0.000  0.098  0.000  0.000  0.104
    2  0.006  0.000  0.000  0.000  0.000  0.000  0.097  0.000  0.000  0.104
    3  0.006  0.000  0.000  0.000  0.000  0.000  0.097  0.000  0.000  0.103
    4  0.000  0.000  0.000  0.000  0.000  0.000  0.000  0.000  0.000  0.000
    5  0.006  0.000  0.000  0.000  0.000  0.000  0.097  0.000  0.000  0.104
    6  0.006  0.000  0.000  0.000  0.000  0.000  0.098  0.000  0.000  0.104
    7  0.000  0.000  0.000  0.000  0.000  0.000  0.000  0.000  0.000  0.000
    8  0.006  0.000  0.000  0.000  0.000  0.000  0.098  0.000  0.000  0.104
    9  0.000  0.000  0.000  0.000  0.000  0.000  0.000  0.000  0.000  0.000
   10  0.006  0.000  0.000  0.000  0.000  0.000  0.097  0.000  0.000  0.103
   11  0.000  0.000  0.000  0.000  0.000  0.000  0.000  0.000  0.000  0.000
   12  0.006  0.000  0.000  0.000  0.000  0.000  0.098  0.000  0.000  0.104
   13  0.000  0.002  0.000  0.001  0.000  0.000  0.000  0.000  0.000  0.003
   14  0.000  0.002  0.000  0.001  0.000  0.000  0.000  0.000  0.000  0.003
   15  0.000  0.002  0.000  0.001  0.000  0.000  0.000  0.000  0.000  0.003
   16  0.000  0.000  0.000  0.003  0.000  0.000  0.000  0.000  0.000  0.003
   17  0.000  0.000  0.000  0.003  0.000  0.000  0.000  0.000  0.000  0.003
   18  0.000  0.000  0.000  0.003  0.000  0.000  0.000  0.000  0.000  0.003
   19  0.000  0.000  0.000  0.003  0.000  0.000  0.000  0.000  0.000  0.003
   20  0.000  0.002  0.000  0.001  0.000  0.000  0.000  0.000  0.000  0.003
   21  0.000  0.002  0.000  0.001  0.000  0.000  0.000  0.000  0.000  0.003
   22  0.000  0.002  0.000  0.001  0.000  0.000  0.000  0.000  0.000  0.003
   23  0.000  0.002  0.000  0.001  0.000  0.000  0.000  0.000  0.000  0.003
   24  0.000  0.002  0.000  0.001  0.000  0.000  0.000  0.000  0.000  0.003
   25  0.000  0.002  0.000  0.001  0.000  0.000  0.000  0.000  0.000  0.003
   26  0.000  0.002  0.000  0.001  0.000  0.000  0.000  0.000  0.000  0.003
   27  0.000  0.002  0.000  0.001  0.000  0.000  0.000  0.000  0.000  0.003
   28  0.000  0.002  0.000  0.001  0.000  0.000  0.000  0.000  0.000  0.003
   29  0.000  0.000  0.000  0.003  0.000  0.000  0.000  0.000  0.000  0.003
   30  0.000  0.000  0.000  0.003  0.000  0.000  0.000  0.000  0.000  0.003
   31  0.000  0.000  0.000  0.003  0.000  0.000  0.000  0.000  0.000  0.003
   32  0.000  0.000  0.000  0.003  0.000  0.000  0.000  0.000  0.000  0.003
   33  0.000  0.002  0.000  0.001  0.000  0.000  0.000  0.000  0.000  0.003
   34  0.000  0.002  0.000  0.001  0.000  0.000  0.000  0.000  0.000  0.003
   35  0.000  0.002  0.000  0.001  0.000  0.000  0.000  0.000  0.000  0.003
   36  0.000  0.002  0.000  0.001  0.000  0.000  0.000  0.000  0.000  0.003
tot    0.049  0.031  0.000  0.030  0.002  0.001  0.780  0.002  0.002  0.897
 
band   110 # energy    0.29671484 # occ.  0.00000000
 
ion      s     py     pz     px    dxy    dyz    dz2    dxz  x2-y2    tot
    1  0.002  0.000  0.000  0.000  0.000  0.000  0.032  0.000  0.000  0.034
    2  0.002  0.000  0.000  0.000  0.000  0.000  0.033  0.000  0.000  0.035
    3  0.002  0.000  0.000  0.000  0.000  0.000  0.033  0.000  0.000  0.035
    4  0.008  0.000  0.000  0.000  0.000  0.000  0.130  0.000  0.000  0.138
    5  0.002  0.000  0.000  0.000  0.000  0.000  0.033  0.000  0.000  0.035
    6  0.002  0.000  0.000  0.000  0.000  0.000  0.032  0.000  0.000  0.034
    7  0.008  0.000  0.000  0.000  0.000  0.000  0.130  0.000  0.000  0.138
    8  0.002  0.000  0.000  0.000  0.000  0.000  0.032  0.000  0.000  0.034
    9  0.008  0.000  0.000  0.000  0.000  0.000  0.130  0.000  0.000  0.138
   10  0.002  0.000  0.000  0.000  0.000  0.000  0.033  0.000  0.000  0.035
   11  0.008  0.000  0.000  0.000  0.000  0.000  0.130  0.000  0.000  0.138
   12  0.002  0.000  0.000  0.000  0.000  0.000  0.032  0.000  0.000  0.034
   13  0.000  0.001  0.000  0.002  0.000  0.000  0.000  0.000  0.000  0.003
   14  0.000  0.001  0.000  0.002  0.000  0.000  0.000  0.000  0.000  0.003
   15  0.000  0.001  0.000  0.002  0.000  0.000  0.000  0.000  0.000  0.003
   16  0.000  0.003  0.000  0.000  0.000  0.000  0.000  0.000  0.000  0.003
   17  0.000  0.003  0.000  0.000  0.000  0.000  0.000  0.000  0.000  0.003
   18  0.000  0.003  0.000  0.000  0.000  0.000  0.000  0.000  0.000  0.003
   19  0.000  0.003  0.000  0.000  0.000  0.000  0.000  0.000  0.000  0.003
   20  0.000  0.001  0.000  0.002  0.000  0.000  0.000  0.000  0.000  0.003
   21  0.000  0.001  0.000  0.002  0.000  0.000  0.000  0.000  0.000  0.003
   22  0.000  0.001  0.000  0.002  0.000  0.000  0.000  0.000  0.000  0.003
   23  0.000  0.001  0.000  0.002  0.000  0.000  0.000  0.000  0.000  0.003
   24  0.000  0.001  0.000  0.002  0.000  0.000  0.000  0.000  0.000  0.003
   25  0.000  0.001  0.000  0.002  0.000  0.000  0.000  0.000  0.000  0.003
   26  0.000  0.001  0.000  0.002  0.000  0.000  0.000  0.000  0.000  0.003
   27  0.000  0.001  0.000  0.002  0.000  0.000  0.000  0.000  0.000  0.003
   28  0.000  0.001  0.000  0.002  0.000  0.000  0.000  0.000  0.000  0.003
   29  0.000  0.003  0.000  0.000  0.000  0.000  0.000  0.000  0.000  0.003
   30  0.000  0.003  0.000  0.000  0.000  0.000  0.000  0.000  0.000  0.003
   31  0.000  0.003  0.000  0.000  0.000  0.000  0.000  0.000  0.000  0.003
   32  0.000  0.003  0.000  0.000  0.000  0.000  0.000  0.000  0.000  0.003
   33  0.000  0.001  0.000  0.002  0.000  0.000  0.000  0.000  0.000  0.003
   34  0.000  0.001  0.000  0.002  0.000  0.000  0.000  0.000  0.000  0.003
   35  0.000  0.001  0.000  0.002  0.000  0.000  0.000  0.000  0.000  0.003
   36  0.000  0.001  0.000  0.002  0.000  0.000  0.000  0.000  0.000  0.003
tot    0.049  0.031  0.000  0.030  0.002  0.001  0.780  0.002  0.002  0.897
 
band   111 # energy    0.49428701 # occ.  0.00000000
 
ion      s     py     pz     px    dxy    dyz    dz2    dxz  x2-y2    tot
    1  0.000  0.000  0.000  0.001  0.023  0.000  0.005  0.000  0.018  0.046
    2  0.000  0.001  0.000  0.000  0.002  0.000  0.005  0.000  0.039  0.046
    3  0.000  0.001  0.000  0.000  0.002  0.000  0.005  0.000  0.039  0.046
    4  0.001  0.000  0.000  0.001  0.012  0.000  0.018  0.000  0.004  0.037
    5  0.000  0.001  0.000  0.000  0.002  0.000  0.005  0.000  0.039  0.046
    6  0.000  0.000  0.000  0.001  0.023  0.000  0.005  0.000  0.018  0.046
    7  0.001  0.000  0.000  0.001  0.013  0.000  0.018  0.000  0.004  0.036
    8  0.000  0.000  0.000  0.001  0.023  0.000  0.005  0.000  0.018  0.046
    9  0.001  0.000  0.000  0.001  0.013  0.000  0.018  0.000  0.004  0.036
   10  0.000  0.001  0.000  0.000  0.002  0.000  0.005  0.000  0.039  0.046
   11  0.001  0.000  0.000  0.001  0.012  0.000  0.018  0.000  0.004  0.037
   12  0.000  0.000  0.000  0.001  0.023  0.000  0.005  0.000  0.018  0.046
   13  0.001  0.001  0.003  0.002  0.000  0.000  0.000  0.000  0.000  0.008
   14  0.000  0.003  0.001  0.004  0.000  0.000  0.000  0.000  0.000  0.009
   15  0.000  0.003  0.001  0.004  0.000  0.000  0.000  0.000  0.000  0.009
   16  0.000  0.007  0.001  0.000  0.000  0.001  0.000  0.000  0.000  0.009
   17  0.000  0.007  0.001  0.000  0.000  0.001  0.000  0.000  0.000  0.009
   18  0.000  0.007  0.001  0.000  0.000  0.001  0.000  0.000  0.000  0.009
   19  0.000  0.007  0.001  0.000  0.000  0.001  0.000  0.000  0.000  0.009
   20  0.001  0.001  0.003  0.002  0.000  0.000  0.000  0.000  0.000  0.008
   21  0.000  0.003  0.001  0.004  0.000  0.000  0.000  0.000  0.000  0.009
   22  0.000  0.003  0.001  0.004  0.000  0.000  0.000  0.000  0.000  0.009
   23  0.001  0.001  0.003  0.002  0.000  0.000  0.000  0.000  0.000  0.008
   24  0.001  0.001  0.003  0.002  0.000  0.000  0.000  0.000  0.000  0.008
   25  0.000  0.003  0.001  0.004  0.000  0.000  0.000  0.000  0.000  0.009
   26  0.000  0.003  0.001  0.004  0.000  0.000  0.000  0.000  0.000  0.009
   27  0.001  0.001  0.003  0.002  0.000  0.000  0.000  0.000  0.000  0.008
   28  0.001  0.001  0.003  0.002  0.000  0.000  0.000  0.000  0.000  0.008
   29  0.000  0.007  0.001  0.000  0.000  0.001  0.000  0.000  0.000  0.009
   30  0.000  0.007  0.001  0.000  0.000  0.001  0.000  0.000  0.000  0.009
   31  0.000  0.007  0.001  0.000  0.000  0.001  0.000  0.000  0.000  0.009
   32  0.000  0.007  0.001  0.000  0.000  0.001  0.000  0.000  0.000  0.009
   33  0.000  0.003  0.001  0.004  0.000  0.000  0.000  0.000  0.000  0.009
   34  0.000  0.003  0.001  0.004  0.000  0.000  0.000  0.000  0.000  0.009
   35  0.001  0.001  0.003  0.002  0.000  0.000  0.000  0.000  0.000  0.008
   36  0.001  0.001  0.003  0.002  0.000  0.000  0.000  0.000  0.000  0.008
tot    0.016  0.093  0.036  0.060  0.151  0.007  0.115  0.003  0.247  0.728
 
band   112 # energy    0.49433254 # occ.  0.00000000
 
ion      s     py     pz     px    dxy    dyz    dz2    dxz  x2-y2    tot
    1  0.001  0.001  0.000  0.000  0.002  0.000  0.014  0.000  0.023  0.040
    2  0.001  0.000  0.000  0.001  0.023  0.000  0.014  0.000  0.002  0.040
    3  0.001  0.000  0.000  0.001  0.023  0.000  0.014  0.000  0.002  0.040
    4  0.000  0.001  0.000  0.000  0.012  0.000  0.000  0.000  0.037  0.050
    5  0.001  0.000  0.000  0.001  0.023  0.000  0.014  0.000  0.002  0.040
    6  0.001  0.001  0.000  0.000  0.002  0.000  0.014  0.000  0.023  0.040
    7  0.000  0.001  0.000  0.000  0.012  0.000  0.000  0.000  0.037  0.050
    8  0.001  0.001  0.000  0.000  0.002  0.000  0.014  0.000  0.023  0.040
    9  0.000  0.001  0.000  0.000  0.012  0.000  0.000  0.000  0.037  0.050
   10  0.001  0.000  0.000  0.001  0.023  0.000  0.014  0.000  0.002  0.040
   11  0.000  0.001  0.000  0.000  0.012  0.000  0.000  0.000  0.037  0.050
   12  0.001  0.001  0.000  0.000  0.002  0.000  0.014  0.000  0.023  0.040
   13  0.000  0.007  0.000  0.002  0.000  0.001  0.000  0.000  0.000  0.010
   14  0.001  0.004  0.002  0.000  0.000  0.000  0.000  0.000  0.000  0.008
   15  0.001  0.004  0.002  0.000  0.000  0.000  0.000  0.000  0.000  0.008
   16  0.001  0.000  0.002  0.004  0.000  0.000  0.000  0.000  0.000  0.008
   17  0.001  0.000  0.002  0.004  0.000  0.000  0.000  0.000  0.000  0.008
   18  0.001  0.000  0.002  0.004  0.000  0.000  0.000  0.000  0.000  0.008
   19  0.001  0.000  0.002  0.004  0.000  0.000  0.000  0.000  0.000  0.008
   20  0.000  0.007  0.000  0.002  0.000  0.001  0.000  0.000  0.000  0.010
   21  0.001  0.004  0.002  0.000  0.000  0.000  0.000  0.000  0.000  0.008
   22  0.001  0.004  0.002  0.000  0.000  0.000  0.000  0.000  0.000  0.008
   23  0.000  0.007  0.000  0.002  0.000  0.001  0.000  0.000  0.000  0.010
   24  0.000  0.007  0.000  0.002  0.000  0.001  0.000  0.000  0.000  0.010
   25  0.001  0.004  0.002  0.000  0.000  0.000  0.000  0.000  0.000  0.008
   26  0.001  0.004  0.002  0.000  0.000  0.000  0.000  0.000  0.000  0.008
   27  0.000  0.007  0.000  0.002  0.000  0.001  0.000  0.000  0.000  0.010
   28  0.000  0.007  0.000  0.002  0.000  0.001  0.000  0.000  0.000  0.010
   29  0.001  0.000  0.002  0.004  0.000  0.000  0.000  0.000  0.000  0.008
   30  0.001  0.000  0.002  0.004  0.000  0.000  0.000  0.000  0.000  0.008
   31  0.001  0.000  0.002  0.004  0.000  0.000  0.000  0.000  0.000  0.008
   32  0.001  0.000  0.002  0.004  0.000  0.000  0.000  0.000  0.000  0.008
   33  0.001  0.004  0.002  0.000  0.000  0.000  0.000  0.000  0.000  0.008
   34  0.001  0.004  0.002  0.000  0.000  0.000  0.000  0.000  0.000  0.008
   35  0.000  0.007  0.000  0.002  0.000  0.001  0.000  0.000  0.000  0.010
   36  0.000  0.007  0.000  0.002  0.000  0.001  0.000  0.000  0.000  0.010
tot    0.016  0.093  0.036  0.060  0.151  0.007  0.115  0.003  0.247  0.728
 
band   113 # energy    0.67709763 # occ.  0.00000000
 
ion      s     py     pz     px    dxy    dyz    dz2    dxz  x2-y2    tot
    1  0.000  0.000  0.000  0.000  0.005  0.000  0.037  0.000  0.002  0.045
    2  0.001  0.000  0.000  0.001  0.030  0.000  0.003  0.000  0.010  0.045
    3  0.000  0.000  0.000  0.000  0.005  0.000  0.037  0.000  0.002  0.045
    4  0.000  0.000  0.000  0.000  0.005  0.000  0.038  0.000  0.002  0.045
    5  0.001  0.000  0.000  0.001  0.030  0.000  0.003  0.000  0.010  0.045
    6  0.001  0.000  0.000  0.001  0.030  0.000  0.003  0.000  0.010  0.045
    7  0.001  0.000  0.000  0.001  0.029  0.000  0.003  0.000  0.010  0.043
    8  0.001  0.000  0.000  0.001  0.030  0.000  0.003  0.000  0.010  0.045
    9  0.001  0.000  0.000  0.001  0.029  0.000  0.003  0.000  0.010  0.043
   10  0.000  0.000  0.000  0.000  0.005  0.000  0.037  0.000  0.002  0.045
   11  0.000  0.000  0.000  0.000  0.005  0.000  0.038  0.000  0.002  0.045
   12  0.000  0.000  0.000  0.000  0.005  0.000  0.037  0.000  0.002  0.045
   13  0.001  0.002  0.001  0.005  0.000  0.000  0.000  0.000  0.000  0.008
   14  0.001  0.002  0.001  0.005  0.000  0.000  0.000  0.000  0.000  0.008
   15  0.001  0.002  0.001  0.005  0.000  0.000  0.000  0.000  0.000  0.008
   16  0.001  0.001  0.002  0.004  0.000  0.000  0.001  0.000  0.000  0.009
   17  0.001  0.001  0.002  0.004  0.000  0.000  0.001  0.000  0.000  0.009
   18  0.001  0.002  0.001  0.005  0.000  0.000  0.000  0.000  0.000  0.008
   19  0.001  0.002  0.001  0.005  0.000  0.000  0.000  0.000  0.000  0.008
   20  0.001  0.002  0.001  0.005  0.000  0.000  0.000  0.000  0.000  0.008
   21  0.001  0.002  0.001  0.005  0.000  0.000  0.000  0.000  0.000  0.008
   22  0.001  0.002  0.001  0.005  0.000  0.000  0.000  0.000  0.000  0.008
   23  0.001  0.001  0.002  0.004  0.000  0.000  0.001  0.000  0.000  0.009
   24  0.001  0.001  0.002  0.004  0.000  0.000  0.001  0.000  0.000  0.009
   25  0.001  0.001  0.002  0.004  0.000  0.000  0.001  0.000  0.000  0.009
   26  0.001  0.001  0.002  0.004  0.000  0.000  0.001  0.000  0.000  0.009
   27  0.001  0.002  0.001  0.005  0.000  0.000  0.000  0.000  0.000  0.008
   28  0.001  0.002  0.001  0.005  0.000  0.000  0.000  0.000  0.000  0.008
   29  0.001  0.001  0.002  0.004  0.000  0.000  0.001  0.000  0.000  0.009
   30  0.001  0.002  0.001  0.005  0.000  0.000  0.000  0.000  0.000  0.008
   31  0.001  0.002  0.001  0.005  0.000  0.000  0.000  0.000  0.000  0.008
   32  0.001  0.001  0.002  0.004  0.000  0.000  0.001  0.000  0.000  0.009
   33  0.001  0.001  0.002  0.004  0.000  0.000  0.001  0.000  0.000  0.009
   34  0.001  0.001  0.002  0.004  0.000  0.000  0.001  0.000  0.000  0.009
   35  0.001  0.001  0.002  0.004  0.000  0.000  0.001  0.000  0.000  0.009
   36  0.001  0.001  0.002  0.004  0.000  0.000  0.001  0.000  0.000  0.009
tot    0.019  0.036  0.032  0.108  0.211  0.002  0.253  0.006  0.070  0.736
 
band   114 # energy    0.67815126 # occ.  0.00000000
 
ion      s     py     pz     px    dxy    dyz    dz2    dxz  x2-y2    tot
    1  0.001  0.000  0.000  0.001  0.030  0.000  0.003  0.000  0.010  0.045
    2  0.000  0.000  0.000  0.000  0.005  0.000  0.037  0.000  0.002  0.045
    3  0.001  0.000  0.000  0.001  0.030  0.000  0.003  0.000  0.010  0.045
    4  0.001  0.000  0.000  0.001  0.029  0.000  0.003  0.000  0.010  0.043
    5  0.000  0.000  0.000  0.000  0.005  0.000  0.037  0.000  0.002  0.045
    6  0.000  0.000  0.000  0.000  0.005  0.000  0.037  0.000  0.002  0.045
    7  0.000  0.000  0.000  0.000  0.005  0.000  0.038  0.000  0.002  0.045
    8  0.000  0.000  0.000  0.000  0.005  0.000  0.037  0.000  0.002  0.045
    9  0.000  0.000  0.000  0.000  0.005  0.000  0.038  0.000  0.002  0.045
   10  0.001  0.000  0.000  0.001  0.030  0.000  0.003  0.000  0.010  0.045
   11  0.001  0.000  0.000  0.001  0.029  0.000  0.003  0.000  0.010  0.043
   12  0.001  0.000  0.000  0.001  0.030  0.000  0.003  0.000  0.010  0.045
   13  0.001  0.001  0.002  0.004  0.000  0.000  0.001  0.000  0.000  0.009
   14  0.001  0.001  0.002  0.004  0.000  0.000  0.001  0.000  0.000  0.009
   15  0.001  0.001  0.002  0.004  0.000  0.000  0.001  0.000  0.000  0.009
   16  0.001  0.002  0.001  0.005  0.000  0.000  0.000  0.000  0.000  0.008
   17  0.001  0.002  0.001  0.005  0.000  0.000  0.000  0.000  0.000  0.008
   18  0.001  0.001  0.002  0.004  0.000  0.000  0.001  0.000  0.000  0.009
   19  0.001  0.001  0.002  0.004  0.000  0.000  0.001  0.000  0.000  0.009
   20  0.001  0.001  0.002  0.004  0.000  0.000  0.001  0.000  0.000  0.009
   21  0.001  0.001  0.002  0.004  0.000  0.000  0.001  0.000  0.000  0.009
   22  0.001  0.001  0.002  0.004  0.000  0.000  0.001  0.000  0.000  0.009
   23  0.001  0.002  0.001  0.005  0.000  0.000  0.000  0.000  0.000  0.008
   24  0.001  0.002  0.001  0.005  0.000  0.000  0.000  0.000  0.000  0.008
   25  0.001  0.002  0.001  0.005  0.000  0.000  0.000  0.000  0.000  0.008
   26  0.001  0.002  0.001  0.005  0.000  0.000  0.000  0.000  0.000  0.008
   27  0.001  0.001  0.002  0.004  0.000  0.000  0.001  0.000  0.000  0.009
   28  0.001  0.001  0.002  0.004  0.000  0.000  0.001  0.000  0.000  0.009
   29  0.001  0.002  0.001  0.005  0.000  0.000  0.000  0.000  0.000  0.008
   30  0.001  0.001  0.002  0.004  0.000  0.000  0.001  0.000  0.000  0.009
   31  0.001  0.001  0.002  0.004  0.000  0.000  0.001  0.000  0.000  0.009
   32  0.001  0.002  0.001  0.005  0.000  0.000  0.000  0.000  0.000  0.008
   33  0.001  0.002  0.001  0.005  0.000  0.000  0.000  0.000  0.000  0.008
   34  0.001  0.002  0.001  0.005  0.000  0.000  0.000  0.000  0.000  0.008
   35  0.001  0.002  0.001  0.005  0.000  0.000  0.000  0.000  0.000  0.008
   36  0.001  0.002  0.001  0.005  0.000  0.000  0.000  0.000  0.000  0.008
tot    0.019  0.036  0.032  0.108  0.211  0.002  0.253  0.006  0.070  0.736
 
band   115 # energy    0.69833124 # occ.  0.00000000
 
ion      s     py     pz     px    dxy    dyz    dz2    dxz  x2-y2    tot
    1  0.000  0.000  0.000  0.000  0.007  0.000  0.010  0.000  0.000  0.017
    2  0.000  0.001  0.000  0.001  0.084  0.000  0.017  0.000  0.043  0.147
    3  0.000  0.000  0.000  0.000  0.001  0.000  0.010  0.000  0.006  0.017
    4  0.000  0.000  0.000  0.000  0.002  0.000  0.000  0.000  0.007  0.009
    5  0.000  0.001  0.000  0.001  0.084  0.000  0.017  0.000  0.043  0.147
    6  0.000  0.000  0.000  0.002  0.104  0.000  0.017  0.000  0.021  0.145
    7  0.000  0.001  0.000  0.000  0.001  0.000  0.000  0.000  0.004  0.006
    8  0.000  0.000  0.000  0.002  0.104  0.000  0.017  0.000  0.021  0.145
    9  0.000  0.001  0.000  0.000  0.001  0.000  0.000  0.000  0.004  0.006
   10  0.000  0.000  0.000  0.000  0.001  0.000  0.010  0.000  0.006  0.017
   11  0.000  0.000  0.000  0.000  0.002  0.000  0.000  0.000  0.007  0.009
   12  0.000  0.000  0.000  0.000  0.007  0.000  0.010  0.000  0.000  0.017
   13  0.000  0.000  0.000  0.000  0.000  0.000  0.000  0.000  0.000  0.000
   14  0.000  0.001  0.004  0.003  0.000  0.000  0.000  0.000  0.000  0.008
   15  0.000  0.001  0.004  0.003  0.000  0.000  0.000  0.000  0.000  0.008
   16  0.000  0.003  0.000  0.005  0.000  0.000  0.000  0.000  0.000  0.009
   17  0.000  0.003  0.000  0.005  0.000  0.000  0.000  0.000  0.000  0.009
   18  0.000  0.001  0.004  0.003  0.000  0.000  0.000  0.000  0.000  0.008
   19  0.000  0.001  0.004  0.003  0.000  0.000  0.000  0.000  0.000  0.008
   20  0.000  0.000  0.000  0.000  0.000  0.000  0.000  0.000  0.000  0.000
   21  0.000  0.001  0.004  0.003  0.000  0.000  0.000  0.000  0.000  0.008
   22  0.000  0.001  0.004  0.003  0.000  0.000  0.000  0.000  0.000  0.008
   23  0.000  0.000  0.000  0.000  0.000  0.000  0.000  0.000  0.000  0.001
   24  0.000  0.000  0.000  0.000  0.000  0.000  0.000  0.000  0.000  0.001
   25  0.000  0.001  0.000  0.007  0.000  0.000  0.000  0.000  0.000  0.009
   26  0.000  0.001  0.000  0.007  0.000  0.000  0.000  0.000  0.000  0.009
   27  0.000  0.000  0.000  0.000  0.000  0.000  0.000  0.000  0.000  0.000
   28  0.000  0.000  0.000  0.000  0.000  0.000  0.000  0.000  0.000  0.000
   29  0.000  0.003  0.000  0.005  0.000  0.000  0.000  0.000  0.000  0.009
   30  0.000  0.001  0.004  0.003  0.000  0.000  0.000  0.000  0.000  0.008
   31  0.000  0.001  0.004  0.003  0.000  0.000  0.000  0.000  0.000  0.008
   32  0.000  0.003  0.000  0.005  0.000  0.000  0.000  0.000  0.000  0.009
   33  0.000  0.001  0.000  0.007  0.000  0.000  0.000  0.000  0.000  0.009
   34  0.000  0.001  0.000  0.007  0.000  0.000  0.000  0.000  0.000  0.009
   35  0.000  0.000  0.000  0.000  0.000  0.000  0.000  0.000  0.000  0.001
   36  0.000  0.000  0.000  0.000  0.000  0.000  0.000  0.000  0.000  0.001
tot    0.006  0.030  0.031  0.078  0.401  0.002  0.109  0.004  0.162  0.823
 
band   116 # energy    0.69842917 # occ.  0.00000000
 
ion      s     py     pz     px    dxy    dyz    dz2    dxz  x2-y2    tot
    1  0.000  0.000  0.000  0.000  0.000  0.000  0.003  0.000  0.008  0.012
    2  0.000  0.000  0.000  0.001  0.042  0.000  0.006  0.000  0.002  0.051
    3  0.000  0.000  0.000  0.000  0.006  0.000  0.003  0.000  0.003  0.012
    4  0.000  0.000  0.000  0.000  0.005  0.000  0.013  0.000  0.001  0.019
    5  0.000  0.000  0.000  0.001  0.042  0.000  0.006  0.000  0.002  0.051
    6  0.000  0.001  0.000  0.000  0.022  0.000  0.006  0.000  0.024  0.053
    7  0.000  0.001  0.000  0.002  0.125  0.000  0.022  0.000  0.042  0.193
    8  0.000  0.001  0.000  0.000  0.022  0.000  0.006  0.000  0.024  0.053
    9  0.000  0.001  0.000  0.002  0.125  0.000  0.022  0.000  0.042  0.193
   10  0.000  0.000  0.000  0.000  0.006  0.000  0.003  0.000  0.003  0.012
   11  0.000  0.000  0.000  0.000  0.005  0.000  0.013  0.000  0.001  0.019
   12  0.000  0.000  0.000  0.000  0.000  0.000  0.003  0.000  0.008  0.012
   13  0.000  0.001  0.005  0.004  0.000  0.000  0.000  0.000  0.000  0.011
   14  0.000  0.001  0.001  0.001  0.000  0.000  0.000  0.000  0.000  0.003
   15  0.000  0.001  0.001  0.001  0.000  0.000  0.000  0.000  0.000  0.003
   16  0.000  0.000  0.000  0.003  0.000  0.000  0.000  0.000  0.000  0.003
   17  0.000  0.000  0.000  0.003  0.000  0.000  0.000  0.000  0.000  0.003
   18  0.000  0.000  0.001  0.001  0.000  0.000  0.000  0.000  0.000  0.003
   19  0.000  0.000  0.001  0.001  0.000  0.000  0.000  0.000  0.000  0.003
   20  0.000  0.001  0.005  0.004  0.000  0.000  0.000  0.000  0.000  0.011
   21  0.000  0.001  0.001  0.001  0.000  0.000  0.000  0.000  0.000  0.003
   22  0.000  0.001  0.001  0.001  0.000  0.000  0.000  0.000  0.000  0.003
   23  0.000  0.003  0.000  0.008  0.000  0.000  0.000  0.001  0.000  0.012
   24  0.000  0.003  0.000  0.008  0.000  0.000  0.000  0.001  0.000  0.012
   25  0.000  0.002  0.000  0.001  0.000  0.000  0.000  0.000  0.000  0.004
   26  0.000  0.002  0.000  0.001  0.000  0.000  0.000  0.000  0.000  0.004
   27  0.000  0.001  0.005  0.004  0.000  0.000  0.000  0.000  0.000  0.011
   28  0.000  0.001  0.005  0.004  0.000  0.000  0.000  0.000  0.000  0.011
   29  0.000  0.000  0.000  0.003  0.000  0.000  0.000  0.000  0.000  0.003
   30  0.000  0.000  0.001  0.001  0.000  0.000  0.000  0.000  0.000  0.003
   31  0.000  0.000  0.001  0.001  0.000  0.000  0.000  0.000  0.000  0.003
   32  0.000  0.000  0.000  0.003  0.000  0.000  0.000  0.000  0.000  0.003
   33  0.000  0.002  0.000  0.001  0.000  0.000  0.000  0.000  0.000  0.004
   34  0.000  0.002  0.000  0.001  0.000  0.000  0.000  0.000  0.000  0.004
   35  0.000  0.003  0.000  0.008  0.000  0.000  0.000  0.001  0.000  0.012
   36  0.000  0.003  0.000  0.008  0.000  0.000  0.000  0.001  0.000  0.012
tot    0.006  0.030  0.031  0.078  0.401  0.002  0.109  0.004  0.162  0.823
 
band   117 # energy    0.69873351 # occ.  0.00000000
 
ion      s     py     pz     px    dxy    dyz    dz2    dxz  x2-y2    tot
    1  0.000  0.000  0.000  0.002  0.105  0.000  0.017  0.000  0.022  0.147
    2  0.000  0.000  0.000  0.000  0.001  0.000  0.010  0.000  0.006  0.017
    3  0.000  0.001  0.000  0.001  0.082  0.000  0.017  0.000  0.043  0.145
    4  0.000  0.001  0.000  0.000  0.001  0.000  0.000  0.000  0.003  0.006
    5  0.000  0.000  0.000  0.000  0.001  0.000  0.010  0.000  0.006  0.017
    6  0.000  0.000  0.000  0.000  0.007  0.000  0.010  0.000  0.000  0.017
    7  0.000  0.000  0.000  0.000  0.002  0.000  0.000  0.000  0.007  0.009
    8  0.000  0.000  0.000  0.000  0.007  0.000  0.010  0.000  0.000  0.017
    9  0.000  0.000  0.000  0.000  0.002  0.000  0.000  0.000  0.007  0.009
   10  0.000  0.001  0.000  0.001  0.082  0.000  0.017  0.000  0.043  0.145
   11  0.000  0.001  0.000  0.000  0.001  0.000  0.000  0.000  0.003  0.006
   12  0.000  0.000  0.000  0.002  0.105  0.000  0.017  0.000  0.022  0.147
   13  0.000  0.000  0.000  0.000  0.000  0.000  0.000  0.000  0.000  0.001
   14  0.000  0.001  0.000  0.007  0.000  0.000  0.000  0.000  0.000  0.009
   15  0.000  0.001  0.000  0.007  0.000  0.000  0.000  0.000  0.000  0.009
   16  0.000  0.001  0.004  0.003  0.000  0.000  0.000  0.000  0.000  0.008
   17  0.000  0.001  0.004  0.003  0.000  0.000  0.000  0.000  0.000  0.008
   18  0.000  0.003  0.000  0.005  0.000  0.000  0.000  0.000  0.000  0.009
   19  0.000  0.003  0.000  0.005  0.000  0.000  0.000  0.000  0.000  0.009
   20  0.000  0.000  0.000  0.000  0.000  0.000  0.000  0.000  0.000  0.001
   21  0.000  0.001  0.000  0.007  0.000  0.000  0.000  0.000  0.000  0.009
   22  0.000  0.001  0.000  0.007  0.000  0.000  0.000  0.000  0.000  0.009
   23  0.000  0.000  0.000  0.000  0.000  0.000  0.000  0.000  0.000  0.000
   24  0.000  0.000  0.000  0.000  0.000  0.000  0.000  0.000  0.000  0.000
   25  0.000  0.001  0.004  0.003  0.000  0.000  0.000  0.000  0.000  0.008
   26  0.000  0.001  0.004  0.003  0.000  0.000  0.000  0.000  0.000  0.008
   27  0.000  0.000  0.000  0.000  0.000  0.000  0.000  0.000  0.000  0.001
   28  0.000  0.000  0.000  0.000  0.000  0.000  0.000  0.000  0.000  0.001
   29  0.000  0.001  0.004  0.003  0.000  0.000  0.000  0.000  0.000  0.008
   30  0.000  0.003  0.000  0.005  0.000  0.000  0.000  0.000  0.000  0.009
   31  0.000  0.003  0.000  0.005  0.000  0.000  0.000  0.000  0.000  0.009
   32  0.000  0.001  0.004  0.003  0.000  0.000  0.000  0.000  0.000  0.008
   33  0.000  0.001  0.004  0.003  0.000  0.000  0.000  0.000  0.000  0.008
   34  0.000  0.001  0.004  0.003  0.000  0.000  0.000  0.000  0.000  0.008
   35  0.000  0.000  0.000  0.000  0.000  0.000  0.000  0.000  0.000  0.000
   36  0.000  0.000  0.000  0.000  0.000  0.000  0.000  0.000  0.000  0.000
tot    0.006  0.030  0.031  0.078  0.400  0.002  0.109  0.004  0.162  0.823
 
band   118 # energy    0.69883550 # occ.  0.00000000
 
ion      s     py     pz     px    dxy    dyz    dz2    dxz  x2-y2    tot
    1  0.000  0.001  0.000  0.000  0.021  0.000  0.006  0.000  0.023  0.051
    2  0.000  0.000  0.000  0.000  0.006  0.000  0.003  0.000  0.003  0.012
    3  0.000  0.000  0.000  0.001  0.043  0.000  0.006  0.000  0.003  0.053
    4  0.000  0.001  0.000  0.002  0.125  0.000  0.023  0.000  0.042  0.193
    5  0.000  0.000  0.000  0.000  0.006  0.000  0.003  0.000  0.003  0.012
    6  0.000  0.000  0.000  0.000  0.000  0.000  0.003  0.000  0.008  0.012
    7  0.000  0.000  0.000  0.000  0.005  0.000  0.013  0.000  0.002  0.019
    8  0.000  0.000  0.000  0.000  0.000  0.000  0.003  0.000  0.008  0.012
    9  0.000  0.000  0.000  0.000  0.005  0.000  0.013  0.000  0.002  0.019
   10  0.000  0.000  0.000  0.001  0.043  0.000  0.006  0.000  0.003  0.053
   11  0.000  0.001  0.000  0.002  0.125  0.000  0.023  0.000  0.042  0.193
   12  0.000  0.001  0.000  0.000  0.021  0.000  0.006  0.000  0.023  0.051
   13  0.000  0.003  0.000  0.008  0.000  0.000  0.000  0.001  0.000  0.012
   14  0.000  0.002  0.000  0.001  0.000  0.000  0.000  0.000  0.000  0.003
   15  0.000  0.002  0.000  0.001  0.000  0.000  0.000  0.000  0.000  0.003
   16  0.000  0.000  0.001  0.001  0.000  0.000  0.000  0.000  0.000  0.003
   17  0.000  0.000  0.001  0.001  0.000  0.000  0.000  0.000  0.000  0.003
   18  0.000  0.000  0.000  0.003  0.000  0.000  0.000  0.000  0.000  0.004
   19  0.000  0.000  0.000  0.003  0.000  0.000  0.000  0.000  0.000  0.004
   20  0.000  0.003  0.000  0.008  0.000  0.000  0.000  0.001  0.000  0.012
   21  0.000  0.002  0.000  0.001  0.000  0.000  0.000  0.000  0.000  0.003
   22  0.000  0.002  0.000  0.001  0.000  0.000  0.000  0.000  0.000  0.003
   23  0.000  0.001  0.005  0.004  0.000  0.000  0.000  0.000  0.000  0.011
   24  0.000  0.001  0.005  0.004  0.000  0.000  0.000  0.000  0.000  0.011
   25  0.000  0.001  0.001  0.001  0.000  0.000  0.000  0.000  0.000  0.003
   26  0.000  0.001  0.001  0.001  0.000  0.000  0.000  0.000  0.000  0.003
   27  0.000  0.003  0.000  0.008  0.000  0.000  0.000  0.001  0.000  0.012
   28  0.000  0.003  0.000  0.008  0.000  0.000  0.000  0.001  0.000  0.012
   29  0.000  0.000  0.001  0.001  0.000  0.000  0.000  0.000  0.000  0.003
   30  0.000  0.000  0.000  0.003  0.000  0.000  0.000  0.000  0.000  0.004
   31  0.000  0.000  0.000  0.003  0.000  0.000  0.000  0.000  0.000  0.004
   32  0.000  0.000  0.001  0.001  0.000  0.000  0.000  0.000  0.000  0.003
   33  0.000  0.001  0.001  0.001  0.000  0.000  0.000  0.000  0.000  0.003
   34  0.000  0.001  0.001  0.001  0.000  0.000  0.000  0.000  0.000  0.003
   35  0.000  0.001  0.005  0.004  0.000  0.000  0.000  0.000  0.000  0.011
   36  0.000  0.001  0.005  0.004  0.000  0.000  0.000  0.000  0.000  0.011
tot    0.006  0.030  0.031  0.078  0.400  0.002  0.109  0.004  0.162  0.822
 
band   119 # energy    0.72342643 # occ.  0.00000000
 
ion      s     py     pz     px    dxy    dyz    dz2    dxz  x2-y2    tot
    1  0.000  0.000  0.000  0.000  0.018  0.000  0.000  0.000  0.055  0.074
    2  0.000  0.000  0.000  0.000  0.018  0.000  0.000  0.000  0.055  0.074
    3  0.000  0.000  0.000  0.000  0.018  0.000  0.000  0.000  0.055  0.074
    4  0.000  0.000  0.000  0.000  0.018  0.000  0.000  0.000  0.055  0.074
    5  0.000  0.000  0.000  0.000  0.018  0.000  0.000  0.000  0.055  0.074
    6  0.000  0.000  0.000  0.000  0.018  0.000  0.000  0.000  0.055  0.074
    7  0.000  0.000  0.000  0.000  0.018  0.000  0.000  0.000  0.055  0.074
    8  0.000  0.000  0.000  0.000  0.018  0.000  0.000  0.000  0.055  0.074
    9  0.000  0.000  0.000  0.000  0.018  0.000  0.000  0.000  0.055  0.074
   10  0.000  0.000  0.000  0.000  0.018  0.000  0.000  0.000  0.055  0.074
   11  0.000  0.000  0.000  0.000  0.018  0.000  0.000  0.000  0.055  0.074
   12  0.000  0.000  0.000  0.000  0.018  0.000  0.000  0.000  0.055  0.074
   13  0.000  0.001  0.000  0.000  0.000  0.000  0.000  0.000  0.000  0.002
   14  0.000  0.001  0.000  0.000  0.000  0.000  0.000  0.000  0.000  0.002
   15  0.000  0.001  0.000  0.000  0.000  0.000  0.000  0.000  0.000  0.002
   16  0.000  0.001  0.000  0.000  0.000  0.000  0.000  0.000  0.000  0.002
   17  0.000  0.001  0.000  0.000  0.000  0.000  0.000  0.000  0.000  0.002
   18  0.000  0.001  0.000  0.000  0.000  0.000  0.000  0.000  0.000  0.002
   19  0.000  0.001  0.000  0.000  0.000  0.000  0.000  0.000  0.000  0.002
   20  0.000  0.001  0.000  0.000  0.000  0.000  0.000  0.000  0.000  0.002
   21  0.000  0.001  0.000  0.000  0.000  0.000  0.000  0.000  0.000  0.002
   22  0.000  0.001  0.000  0.000  0.000  0.000  0.000  0.000  0.000  0.002
   23  0.000  0.001  0.000  0.000  0.000  0.000  0.000  0.000  0.000  0.002
   24  0.000  0.001  0.000  0.000  0.000  0.000  0.000  0.000  0.000  0.002
   25  0.000  0.001  0.000  0.000  0.000  0.000  0.000  0.000  0.000  0.002
   26  0.000  0.001  0.000  0.000  0.000  0.000  0.000  0.000  0.000  0.002
   27  0.000  0.001  0.000  0.000  0.000  0.000  0.000  0.000  0.000  0.002
   28  0.000  0.001  0.000  0.000  0.000  0.000  0.000  0.000  0.000  0.002
   29  0.000  0.001  0.000  0.000  0.000  0.000  0.000  0.000  0.000  0.002
   30  0.000  0.001  0.000  0.000  0.000  0.000  0.000  0.000  0.000  0.002
   31  0.000  0.001  0.000  0.000  0.000  0.000  0.000  0.000  0.000  0.002
   32  0.000  0.001  0.000  0.000  0.000  0.000  0.000  0.000  0.000  0.002
   33  0.000  0.001  0.000  0.000  0.000  0.000  0.000  0.000  0.000  0.002
   34  0.000  0.001  0.000  0.000  0.000  0.000  0.000  0.000  0.000  0.002
   35  0.000  0.001  0.000  0.000  0.000  0.000  0.000  0.000  0.000  0.002
   36  0.000  0.001  0.000  0.000  0.000  0.000  0.000  0.000  0.000  0.002
tot    0.000  0.035  0.000  0.012  0.221  0.002  0.000  0.001  0.664  0.935
 
band   120 # energy    0.97057350 # occ.  0.00000000
 
ion      s     py     pz     px    dxy    dyz    dz2    dxz  x2-y2    tot
    1  0.001  0.000  0.000  0.000  0.004  0.000  0.008  0.000  0.036  0.050
    2  0.000  0.000  0.000  0.000  0.008  0.000  0.021  0.000  0.048  0.078
    3  0.001  0.000  0.000  0.000  0.018  0.000  0.008  0.000  0.022  0.050
    4  0.005  0.000  0.000  0.000  0.005  0.000  0.033  0.000  0.002  0.045
    5  0.000  0.000  0.000  0.000  0.008  0.000  0.021  0.000  0.048  0.078
    6  0.000  0.000  0.000  0.000  0.021  0.000  0.021  0.000  0.035  0.077
    7  0.000  0.000  0.000  0.000  0.003  0.000  0.084  0.000  0.001  0.090
    8  0.000  0.000  0.000  0.000  0.021  0.000  0.021  0.000  0.035  0.077
    9  0.000  0.000  0.000  0.000  0.003  0.000  0.084  0.000  0.001  0.090
   10  0.001  0.000  0.000  0.000  0.018  0.000  0.008  0.000  0.022  0.050
   11  0.005  0.000  0.000  0.000  0.005  0.000  0.033  0.000  0.002  0.045
   12  0.001  0.000  0.000  0.000  0.004  0.000  0.008  0.000  0.036  0.050
   13  0.000  0.000  0.001  0.001  0.000  0.000  0.000  0.000  0.000  0.004
   14  0.000  0.005  0.000  0.004  0.000  0.000  0.000  0.000  0.000  0.010
   15  0.000  0.005  0.000  0.004  0.000  0.000  0.000  0.000  0.000  0.010
   16  0.000  0.000  0.000  0.000  0.000  0.000  0.000  0.000  0.000  0.000
   17  0.000  0.000  0.000  0.000  0.000  0.000  0.000  0.000  0.000  0.000
   18  0.000  0.008  0.000  0.001  0.000  0.000  0.000  0.000  0.000  0.010
   19  0.000  0.008  0.000  0.001  0.000  0.000  0.000  0.000  0.000  0.010
   20  0.000  0.000  0.001  0.001  0.000  0.000  0.000  0.000  0.000  0.004
   21  0.000  0.005  0.000  0.004  0.000  0.000  0.000  0.000  0.000  0.010
   22  0.000  0.005  0.000  0.004  0.000  0.000  0.000  0.000  0.000  0.010
   23  0.000  0.000  0.000  0.000  0.000  0.000  0.000  0.000  0.000  0.001
   24  0.000  0.000  0.000  0.000  0.000  0.000  0.000  0.000  0.000  0.001
   25  0.000  0.000  0.000  0.000  0.000  0.000  0.000  0.000  0.000  0.000
   26  0.000  0.000  0.000  0.000  0.000  0.000  0.000  0.000  0.000  0.000
   27  0.000  0.000  0.001  0.001  0.000  0.000  0.000  0.000  0.000  0.004
   28  0.000  0.000  0.001  0.001  0.000  0.000  0.000  0.000  0.000  0.004
   29  0.000  0.000  0.000  0.000  0.000  0.000  0.000  0.000  0.000  0.000
   30  0.000  0.008  0.000  0.001  0.000  0.000  0.000  0.000  0.000  0.010
   31  0.000  0.008  0.000  0.001  0.000  0.000  0.000  0.000  0.000  0.010
   32  0.000  0.000  0.000  0.000  0.000  0.000  0.000  0.000  0.000  0.000
   33  0.000  0.000  0.000  0.000  0.000  0.000  0.000  0.000  0.000  0.000
   34  0.000  0.000  0.000  0.000  0.000  0.000  0.000  0.000  0.000  0.000
   35  0.000  0.000  0.000  0.000  0.000  0.000  0.000  0.000  0.000  0.001
   36  0.000  0.000  0.000  0.000  0.000  0.000  0.000  0.000  0.000  0.001
tot    0.017  0.057  0.009  0.028  0.120  0.003  0.355  0.001  0.290  0.881
 
band   121 # energy    0.97063465 # occ.  0.00000000
 
ion      s     py     pz     px    dxy    dyz    dz2    dxz  x2-y2    tot
    1  0.004  0.000  0.000  0.000  0.014  0.000  0.026  0.000  0.004  0.047
    2  0.000  0.000  0.000  0.000  0.014  0.000  0.063  0.000  0.008  0.085
    3  0.004  0.000  0.000  0.000  0.000  0.000  0.025  0.000  0.018  0.047
    4  0.000  0.000  0.000  0.000  0.013  0.000  0.000  0.000  0.038  0.051
    5  0.000  0.000  0.000  0.000  0.014  0.000  0.063  0.000  0.008  0.085
    6  0.000  0.000  0.000  0.000  0.000  0.000  0.063  0.000  0.021  0.085
    7  0.000  0.000  0.000  0.000  0.019  0.000  0.000  0.000  0.056  0.075
    8  0.000  0.000  0.000  0.000  0.000  0.000  0.063  0.000  0.021  0.085
    9  0.000  0.000  0.000  0.000  0.019  0.000  0.000  0.000  0.056  0.075
   10  0.004  0.000  0.000  0.000  0.000  0.000  0.025  0.000  0.018  0.047
   11  0.000  0.000  0.000  0.000  0.013  0.000  0.000  0.000  0.038  0.051
   12  0.004  0.000  0.000  0.000  0.014  0.000  0.026  0.000  0.004  0.047
   13  0.000  0.008  0.000  0.003  0.000  0.000  0.000  0.000  0.000  0.012
   14  0.000  0.004  0.001  0.000  0.000  0.000  0.000  0.000  0.000  0.006
   15  0.000  0.004  0.001  0.000  0.000  0.000  0.000  0.000  0.000  0.006
   16  0.000  0.000  0.000  0.000  0.000  0.000  0.000  0.000  0.000  0.001
   17  0.000  0.000  0.000  0.000  0.000  0.000  0.000  0.000  0.000  0.001
   18  0.000  0.001  0.001  0.003  0.000  0.000  0.000  0.000  0.000  0.006
   19  0.000  0.001  0.001  0.003  0.000  0.000  0.000  0.000  0.000  0.006
   20  0.000  0.008  0.000  0.003  0.000  0.000  0.000  0.000  0.000  0.012
   21  0.000  0.004  0.001  0.000  0.000  0.000  0.000  0.000  0.000  0.006
   22  0.000  0.004  0.001  0.000  0.000  0.000  0.000  0.000  0.000  0.006
   23  0.000  0.000  0.000  0.000  0.000  0.000  0.000  0.000  0.000  0.000
   24  0.000  0.000  0.000  0.000  0.000  0.000  0.000  0.000  0.000  0.000
   25  0.000  0.000  0.000  0.000  0.000  0.000  0.000  0.000  0.000  0.001
   26  0.000  0.000  0.000  0.000  0.000  0.000  0.000  0.000  0.000  0.001
   27  0.000  0.008  0.000  0.003  0.000  0.000  0.000  0.000  0.000  0.012
   28  0.000  0.008  0.000  0.003  0.000  0.000  0.000  0.000  0.000  0.012
   29  0.000  0.000  0.000  0.000  0.000  0.000  0.000  0.000  0.000  0.001
   30  0.000  0.001  0.001  0.003  0.000  0.000  0.000  0.000  0.000  0.006
   31  0.000  0.001  0.001  0.003  0.000  0.000  0.000  0.000  0.000  0.006
   32  0.000  0.000  0.000  0.000  0.000  0.000  0.000  0.000  0.000  0.001
   33  0.000  0.000  0.000  0.000  0.000  0.000  0.000  0.000  0.000  0.001
   34  0.000  0.000  0.000  0.000  0.000  0.000  0.000  0.000  0.000  0.001
   35  0.000  0.000  0.000  0.000  0.000  0.000  0.000  0.000  0.000  0.000
   36  0.000  0.000  0.000  0.000  0.000  0.000  0.000  0.000  0.000  0.000
tot    0.017  0.057  0.009  0.028  0.121  0.003  0.355  0.001  0.290  0.881
 
band   122 # energy    0.97079108 # occ.  0.00000000
 
ion      s     py     pz     px    dxy    dyz    dz2    dxz  x2-y2    tot
    1  0.000  0.000  0.000  0.000  0.021  0.000  0.021  0.000  0.035  0.077
    2  0.001  0.000  0.000  0.000  0.018  0.000  0.008  0.000  0.022  0.050
    3  0.000  0.000  0.000  0.000  0.008  0.000  0.021  0.000  0.049  0.078
    4  0.000  0.000  0.000  0.000  0.003  0.000  0.084  0.000  0.001  0.090
    5  0.001  0.000  0.000  0.000  0.018  0.000  0.008  0.000  0.022  0.050
    6  0.001  0.000  0.000  0.000  0.004  0.000  0.008  0.000  0.036  0.050
    7  0.005  0.000  0.000  0.000  0.005  0.000  0.033  0.000  0.002  0.045
    8  0.001  0.000  0.000  0.000  0.004  0.000  0.008  0.000  0.036  0.050
    9  0.005  0.000  0.000  0.000  0.005  0.000  0.033  0.000  0.002  0.045
   10  0.000  0.000  0.000  0.000  0.008  0.000  0.021  0.000  0.049  0.078
   11  0.000  0.000  0.000  0.000  0.003  0.000  0.084  0.000  0.001  0.090
   12  0.000  0.000  0.000  0.000  0.021  0.000  0.021  0.000  0.035  0.077
   13  0.000  0.000  0.000  0.000  0.000  0.000  0.000  0.000  0.000  0.001
   14  0.000  0.000  0.000  0.000  0.000  0.000  0.000  0.000  0.000  0.000
   15  0.000  0.000  0.000  0.000  0.000  0.000  0.000  0.000  0.000  0.000
   16  0.000  0.008  0.000  0.001  0.000  0.000  0.000  0.000  0.000  0.010
   17  0.000  0.008  0.000  0.001  0.000  0.000  0.000  0.000  0.000  0.010
   18  0.000  0.000  0.000  0.000  0.000  0.000  0.000  0.000  0.000  0.000
   19  0.000  0.000  0.000  0.000  0.000  0.000  0.000  0.000  0.000  0.000
   20  0.000  0.000  0.000  0.000  0.000  0.000  0.000  0.000  0.000  0.001
   21  0.000  0.000  0.000  0.000  0.000  0.000  0.000  0.000  0.000  0.000
   22  0.000  0.000  0.000  0.000  0.000  0.000  0.000  0.000  0.000  0.000
   23  0.000  0.000  0.001  0.001  0.000  0.000  0.000  0.000  0.000  0.004
   24  0.000  0.000  0.001  0.001  0.000  0.000  0.000  0.000  0.000  0.004
   25  0.000  0.005  0.000  0.004  0.000  0.000  0.000  0.000  0.000  0.010
   26  0.000  0.005  0.000  0.004  0.000  0.000  0.000  0.000  0.000  0.010
   27  0.000  0.000  0.000  0.000  0.000  0.000  0.000  0.000  0.000  0.001
   28  0.000  0.000  0.000  0.000  0.000  0.000  0.000  0.000  0.000  0.001
   29  0.000  0.008  0.000  0.001  0.000  0.000  0.000  0.000  0.000  0.010
   30  0.000  0.000  0.000  0.000  0.000  0.000  0.000  0.000  0.000  0.000
   31  0.000  0.000  0.000  0.000  0.000  0.000  0.000  0.000  0.000  0.000
   32  0.000  0.008  0.000  0.001  0.000  0.000  0.000  0.000  0.000  0.010
   33  0.000  0.005  0.000  0.004  0.000  0.000  0.000  0.000  0.000  0.010
   34  0.000  0.005  0.000  0.004  0.000  0.000  0.000  0.000  0.000  0.010
   35  0.000  0.000  0.001  0.001  0.000  0.000  0.000  0.000  0.000  0.004
   36  0.000  0.000  0.001  0.001  0.000  0.000  0.000  0.000  0.000  0.004
tot    0.017  0.057  0.009  0.028  0.120  0.003  0.356  0.001  0.290  0.881
 
band   123 # energy    0.97085004 # occ.  0.00000000
 
ion      s     py     pz     px    dxy    dyz    dz2    dxz  x2-y2    tot
    1  0.000  0.000  0.000  0.000  0.000  0.000  0.062  0.000  0.022  0.085
    2  0.004  0.000  0.000  0.000  0.000  0.000  0.026  0.000  0.018  0.047
    3  0.000  0.000  0.000  0.000  0.014  0.000  0.063  0.000  0.008  0.085
    4  0.000  0.000  0.000  0.000  0.019  0.000  0.000  0.000  0.056  0.074
    5  0.004  0.000  0.000  0.000  0.000  0.000  0.026  0.000  0.018  0.047
    6  0.004  0.000  0.000  0.000  0.014  0.000  0.026  0.000  0.004  0.047
    7  0.000  0.000  0.000  0.000  0.013  0.000  0.000  0.000  0.038  0.051
    8  0.004  0.000  0.000  0.000  0.014  0.000  0.026  0.000  0.004  0.047
    9  0.000  0.000  0.000  0.000  0.013  0.000  0.000  0.000  0.038  0.051
   10  0.000  0.000  0.000  0.000  0.014  0.000  0.063  0.000  0.008  0.085
   11  0.000  0.000  0.000  0.000  0.019  0.000  0.000  0.000  0.056  0.074
   12  0.000  0.000  0.000  0.000  0.000  0.000  0.062  0.000  0.022  0.085
   13  0.000  0.000  0.000  0.000  0.000  0.000  0.000  0.000  0.000  0.000
   14  0.000  0.000  0.000  0.000  0.000  0.000  0.000  0.000  0.000  0.001
   15  0.000  0.000  0.000  0.000  0.000  0.000  0.000  0.000  0.000  0.001
   16  0.000  0.001  0.001  0.003  0.000  0.000  0.000  0.000  0.000  0.006
   17  0.000  0.001  0.001  0.003  0.000  0.000  0.000  0.000  0.000  0.006
   18  0.000  0.000  0.000  0.000  0.000  0.000  0.000  0.000  0.000  0.001
   19  0.000  0.000  0.000  0.000  0.000  0.000  0.000  0.000  0.000  0.001
   20  0.000  0.000  0.000  0.000  0.000  0.000  0.000  0.000  0.000  0.000
   21  0.000  0.000  0.000  0.000  0.000  0.000  0.000  0.000  0.000  0.001
   22  0.000  0.000  0.000  0.000  0.000  0.000  0.000  0.000  0.000  0.001
   23  0.000  0.008  0.000  0.003  0.000  0.000  0.000  0.000  0.000  0.012
   24  0.000  0.008  0.000  0.003  0.000  0.000  0.000  0.000  0.000  0.012
   25  0.000  0.004  0.001  0.000  0.000  0.000  0.000  0.000  0.000  0.006
   26  0.000  0.004  0.001  0.000  0.000  0.000  0.000  0.000  0.000  0.006
   27  0.000  0.000  0.000  0.000  0.000  0.000  0.000  0.000  0.000  0.000
   28  0.000  0.000  0.000  0.000  0.000  0.000  0.000  0.000  0.000  0.000
   29  0.000  0.001  0.001  0.003  0.000  0.000  0.000  0.000  0.000  0.006
   30  0.000  0.000  0.000  0.000  0.000  0.000  0.000  0.000  0.000  0.001
   31  0.000  0.000  0.000  0.000  0.000  0.000  0.000  0.000  0.000  0.001
   32  0.000  0.001  0.001  0.003  0.000  0.000  0.000  0.000  0.000  0.006
   33  0.000  0.004  0.001  0.000  0.000  0.000  0.000  0.000  0.000  0.006
   34  0.000  0.004  0.001  0.000  0.000  0.000  0.000  0.000  0.000  0.006
   35  0.000  0.008  0.000  0.003  0.000  0.000  0.000  0.000  0.000  0.012
   36  0.000  0.008  0.000  0.003  0.000  0.000  0.000  0.000  0.000  0.012
tot    0.017  0.057  0.009  0.028  0.121  0.003  0.355  0.001  0.290  0.881
 
band   124 # energy    1.04383053 # occ.  0.00000000
 
ion      s     py     pz     px    dxy    dyz    dz2    dxz  x2-y2    tot
    1  0.002  0.000  0.000  0.000  0.042  0.000  0.027  0.000  0.010  0.081
    2  0.002  0.000  0.000  0.000  0.036  0.000  0.027  0.000  0.016  0.081
    3  0.002  0.000  0.000  0.000  0.036  0.000  0.027  0.000  0.016  0.081
    4  0.000  0.000  0.000  0.000  0.000  0.000  0.000  0.000  0.001  0.002
    5  0.002  0.000  0.000  0.000  0.036  0.000  0.027  0.000  0.016  0.081
    6  0.002  0.000  0.000  0.000  0.041  0.000  0.027  0.000  0.010  0.081
    7  0.000  0.000  0.000  0.000  0.000  0.000  0.000  0.000  0.001  0.002
    8  0.002  0.000  0.000  0.000  0.041  0.000  0.027  0.000  0.010  0.081
    9  0.000  0.000  0.000  0.000  0.000  0.000  0.000  0.000  0.001  0.002
   10  0.002  0.000  0.000  0.000  0.036  0.000  0.027  0.000  0.016  0.081
   11  0.000  0.000  0.000  0.000  0.000  0.000  0.000  0.000  0.001  0.002
   12  0.002  0.000  0.000  0.000  0.042  0.000  0.027  0.000  0.010  0.081
   13  0.000  0.001  0.000  0.000  0.000  0.000  0.000  0.000  0.000  0.002
   14  0.000  0.001  0.001  0.009  0.000  0.000  0.000  0.000  0.000  0.011
   15  0.000  0.001  0.001  0.009  0.000  0.000  0.000  0.000  0.000  0.011
   16  0.000  0.004  0.001  0.005  0.000  0.000  0.000  0.000  0.000  0.011
   17  0.000  0.004  0.001  0.005  0.000  0.000  0.000  0.000  0.000  0.011
   18  0.000  0.004  0.001  0.005  0.000  0.000  0.000  0.000  0.000  0.011
   19  0.000  0.004  0.001  0.005  0.000  0.000  0.000  0.000  0.000  0.011
   20  0.000  0.001  0.000  0.000  0.000  0.000  0.000  0.000  0.000  0.002
   21  0.000  0.001  0.001  0.009  0.000  0.000  0.000  0.000  0.000  0.011
   22  0.000  0.001  0.001  0.009  0.000  0.000  0.000  0.000  0.000  0.011
   23  0.000  0.001  0.000  0.000  0.000  0.000  0.000  0.000  0.000  0.002
   24  0.000  0.001  0.000  0.000  0.000  0.000  0.000  0.000  0.000  0.002
   25  0.000  0.001  0.001  0.009  0.000  0.000  0.000  0.000  0.000  0.011
   26  0.000  0.001  0.001  0.009  0.000  0.000  0.000  0.000  0.000  0.011
   27  0.000  0.001  0.000  0.000  0.000  0.000  0.000  0.000  0.000  0.002
   28  0.000  0.001  0.000  0.000  0.000  0.000  0.000  0.000  0.000  0.002
   29  0.000  0.004  0.001  0.005  0.000  0.000  0.000  0.000  0.000  0.011
   30  0.000  0.004  0.001  0.005  0.000  0.000  0.000  0.000  0.000  0.011
   31  0.000  0.004  0.001  0.005  0.000  0.000  0.000  0.000  0.000  0.011
   32  0.000  0.004  0.001  0.005  0.000  0.000  0.000  0.000  0.000  0.011
   33  0.000  0.001  0.001  0.009  0.000  0.000  0.000  0.000  0.000  0.011
   34  0.000  0.001  0.001  0.009  0.000  0.000  0.000  0.000  0.000  0.011
   35  0.000  0.001  0.000  0.000  0.000  0.000  0.000  0.000  0.000  0.002
   36  0.000  0.001  0.000  0.000  0.000  0.000  0.000  0.000  0.000  0.002
tot    0.014  0.055  0.010  0.119  0.311  0.001  0.219  0.003  0.111  0.843
 
band   125 # energy    1.04402617 # occ.  0.00000000
 
ion      s     py     pz     px    dxy    dyz    dz2    dxz  x2-y2    tot
    1  0.001  0.001  0.000  0.000  0.010  0.000  0.009  0.000  0.008  0.028
    2  0.001  0.000  0.000  0.000  0.016  0.000  0.009  0.000  0.002  0.028
    3  0.001  0.000  0.000  0.000  0.016  0.000  0.009  0.000  0.002  0.028
    4  0.002  0.000  0.000  0.000  0.051  0.000  0.036  0.000  0.017  0.107
    5  0.001  0.000  0.000  0.000  0.016  0.000  0.009  0.000  0.002  0.028
    6  0.001  0.001  0.000  0.000  0.010  0.000  0.009  0.000  0.008  0.028
    7  0.002  0.000  0.000  0.000  0.051  0.000  0.036  0.000  0.017  0.107
    8  0.001  0.001  0.000  0.000  0.010  0.000  0.009  0.000  0.008  0.028
    9  0.002  0.000  0.000  0.000  0.051  0.000  0.036  0.000  0.017  0.107
   10  0.001  0.000  0.000  0.000  0.016  0.000  0.009  0.000  0.002  0.028
   11  0.002  0.000  0.000  0.000  0.051  0.000  0.036  0.000  0.017  0.107
   12  0.001  0.001  0.000  0.000  0.010  0.000  0.009  0.000  0.008  0.028
   13  0.000  0.003  0.001  0.009  0.000  0.000  0.000  0.000  0.000  0.014
   14  0.000  0.003  0.000  0.001  0.000  0.000  0.000  0.000  0.000  0.005
   15  0.000  0.003  0.000  0.001  0.000  0.000  0.000  0.000  0.000  0.005
   16  0.000  0.000  0.000  0.004  0.000  0.000  0.000  0.000  0.000  0.005
   17  0.000  0.000  0.000  0.004  0.000  0.000  0.000  0.000  0.000  0.005
   18  0.000  0.000  0.000  0.004  0.000  0.000  0.000  0.000  0.000  0.005
   19  0.000  0.000  0.000  0.004  0.000  0.000  0.000  0.000  0.000  0.005
   20  0.000  0.003  0.001  0.009  0.000  0.000  0.000  0.000  0.000  0.014
   21  0.000  0.003  0.000  0.001  0.000  0.000  0.000  0.000  0.000  0.005
   22  0.000  0.003  0.000  0.001  0.000  0.000  0.000  0.000  0.000  0.005
   23  0.000  0.003  0.001  0.009  0.000  0.000  0.000  0.000  0.000  0.014
   24  0.000  0.003  0.001  0.009  0.000  0.000  0.000  0.000  0.000  0.014
   25  0.000  0.003  0.000  0.001  0.000  0.000  0.000  0.000  0.000  0.005
   26  0.000  0.003  0.000  0.001  0.000  0.000  0.000  0.000  0.000  0.005
   27  0.000  0.003  0.001  0.009  0.000  0.000  0.000  0.000  0.000  0.014
   28  0.000  0.003  0.001  0.009  0.000  0.000  0.000  0.000  0.000  0.014
   29  0.000  0.000  0.000  0.004  0.000  0.000  0.000  0.000  0.000  0.005
   30  0.000  0.000  0.000  0.004  0.000  0.000  0.000  0.000  0.000  0.005
   31  0.000  0.000  0.000  0.004  0.000  0.000  0.000  0.000  0.000  0.005
   32  0.000  0.000  0.000  0.004  0.000  0.000  0.000  0.000  0.000  0.005
   33  0.000  0.003  0.000  0.001  0.000  0.000  0.000  0.000  0.000  0.005
   34  0.000  0.003  0.000  0.001  0.000  0.000  0.000  0.000  0.000  0.005
   35  0.000  0.003  0.001  0.009  0.000  0.000  0.000  0.000  0.000  0.014
   36  0.000  0.003  0.001  0.009  0.000  0.000  0.000  0.000  0.000  0.014
tot    0.014  0.055  0.010  0.119  0.311  0.001  0.219  0.003  0.111  0.843
 
band   126 # energy    1.09487876 # occ.  0.00000000
 
ion      s     py     pz     px    dxy    dyz    dz2    dxz  x2-y2    tot
    1  0.000  0.002  0.000  0.001  0.005  0.000  0.000  0.000  0.016  0.024
    2  0.000  0.000  0.000  0.000  0.014  0.000  0.000  0.000  0.042  0.056
    3  0.000  0.002  0.000  0.001  0.005  0.000  0.000  0.000  0.016  0.024
    4  0.000  0.002  0.000  0.001  0.005  0.000  0.000  0.000  0.016  0.024
    5  0.000  0.000  0.000  0.000  0.014  0.000  0.000  0.000  0.042  0.056
    6  0.000  0.000  0.000  0.000  0.014  0.000  0.000  0.000  0.042  0.056
    7  0.000  0.000  0.000  0.000  0.014  0.000  0.000  0.000  0.042  0.056
    8  0.000  0.000  0.000  0.000  0.014  0.000  0.000  0.000  0.042  0.056
    9  0.000  0.000  0.000  0.000  0.014  0.000  0.000  0.000  0.042  0.056
   10  0.000  0.002  0.000  0.001  0.005  0.000  0.000  0.000  0.016  0.024
   11  0.000  0.002  0.000  0.001  0.005  0.000  0.000  0.000  0.016  0.024
   12  0.000  0.002  0.000  0.001  0.005  0.000  0.000  0.000  0.016  0.024
   13  0.000  0.003  0.000  0.001  0.000  0.000  0.000  0.000  0.000  0.005
   14  0.000  0.003  0.000  0.001  0.000  0.000  0.000  0.000  0.000  0.005
   15  0.000  0.003  0.000  0.001  0.000  0.000  0.000  0.000  0.000  0.005
   16  0.000  0.017  0.000  0.006  0.000  0.000  0.000  0.000  0.000  0.023
   17  0.000  0.017  0.000  0.006  0.000  0.000  0.000  0.000  0.000  0.023
   18  0.000  0.003  0.000  0.001  0.000  0.000  0.000  0.000  0.000  0.005
   19  0.000  0.003  0.000  0.001  0.000  0.000  0.000  0.000  0.000  0.005
   20  0.000  0.003  0.000  0.001  0.000  0.000  0.000  0.000  0.000  0.005
   21  0.000  0.003  0.000  0.001  0.000  0.000  0.000  0.000  0.000  0.005
   22  0.000  0.003  0.000  0.001  0.000  0.000  0.000  0.000  0.000  0.005
   23  0.000  0.017  0.000  0.006  0.000  0.000  0.000  0.000  0.000  0.023
   24  0.000  0.017  0.000  0.006  0.000  0.000  0.000  0.000  0.000  0.023
   25  0.000  0.017  0.000  0.006  0.000  0.000  0.000  0.000  0.000  0.023
   26  0.000  0.017  0.000  0.006  0.000  0.000  0.000  0.000  0.000  0.023
   27  0.000  0.003  0.000  0.001  0.000  0.000  0.000  0.000  0.000  0.005
   28  0.000  0.003  0.000  0.001  0.000  0.000  0.000  0.000  0.000  0.005
   29  0.000  0.017  0.000  0.006  0.000  0.000  0.000  0.000  0.000  0.023
   30  0.000  0.003  0.000  0.001  0.000  0.000  0.000  0.000  0.000  0.005
   31  0.000  0.003  0.000  0.001  0.000  0.000  0.000  0.000  0.000  0.005
   32  0.000  0.017  0.000  0.006  0.000  0.000  0.000  0.000  0.000  0.023
   33  0.000  0.017  0.000  0.006  0.000  0.000  0.000  0.000  0.000  0.023
   34  0.000  0.017  0.000  0.006  0.000  0.000  0.000  0.000  0.000  0.023
   35  0.000  0.017  0.000  0.006  0.000  0.000  0.000  0.000  0.000  0.023
   36  0.000  0.017  0.000  0.006  0.000  0.000  0.000  0.000  0.000  0.023
tot    0.000  0.256  0.000  0.085  0.116  0.003  0.000  0.001  0.349  0.811
 
band   127 # energy    1.09595193 # occ.  0.00000000
 
ion      s     py     pz     px    dxy    dyz    dz2    dxz  x2-y2    tot
    1  0.000  0.000  0.000  0.000  0.014  0.000  0.000  0.000  0.042  0.056
    2  0.000  0.002  0.000  0.001  0.005  0.000  0.000  0.000  0.016  0.024
    3  0.000  0.000  0.000  0.000  0.014  0.000  0.000  0.000  0.042  0.056
    4  0.000  0.000  0.000  0.000  0.014  0.000  0.000  0.000  0.042  0.056
    5  0.000  0.002  0.000  0.001  0.005  0.000  0.000  0.000  0.016  0.024
    6  0.000  0.002  0.000  0.001  0.005  0.000  0.000  0.000  0.016  0.024
    7  0.000  0.002  0.000  0.001  0.005  0.000  0.000  0.000  0.016  0.024
    8  0.000  0.002  0.000  0.001  0.005  0.000  0.000  0.000  0.016  0.024
    9  0.000  0.002  0.000  0.001  0.005  0.000  0.000  0.000  0.016  0.024
   10  0.000  0.000  0.000  0.000  0.014  0.000  0.000  0.000  0.042  0.056
   11  0.000  0.000  0.000  0.000  0.014  0.000  0.000  0.000  0.042  0.056
   12  0.000  0.000  0.000  0.000  0.014  0.000  0.000  0.000  0.042  0.056
   13  0.000  0.017  0.000  0.006  0.000  0.000  0.000  0.000  0.000  0.023
   14  0.000  0.017  0.000  0.006  0.000  0.000  0.000  0.000  0.000  0.023
   15  0.000  0.017  0.000  0.006  0.000  0.000  0.000  0.000  0.000  0.023
   16  0.000  0.003  0.000  0.001  0.000  0.000  0.000  0.000  0.000  0.005
   17  0.000  0.003  0.000  0.001  0.000  0.000  0.000  0.000  0.000  0.005
   18  0.000  0.017  0.000  0.006  0.000  0.000  0.000  0.000  0.000  0.023
   19  0.000  0.017  0.000  0.006  0.000  0.000  0.000  0.000  0.000  0.023
   20  0.000  0.017  0.000  0.006  0.000  0.000  0.000  0.000  0.000  0.023
   21  0.000  0.017  0.000  0.006  0.000  0.000  0.000  0.000  0.000  0.023
   22  0.000  0.017  0.000  0.006  0.000  0.000  0.000  0.000  0.000  0.023
   23  0.000  0.003  0.000  0.001  0.000  0.000  0.000  0.000  0.000  0.005
   24  0.000  0.003  0.000  0.001  0.000  0.000  0.000  0.000  0.000  0.005
   25  0.000  0.003  0.000  0.001  0.000  0.000  0.000  0.000  0.000  0.005
   26  0.000  0.003  0.000  0.001  0.000  0.000  0.000  0.000  0.000  0.005
   27  0.000  0.017  0.000  0.006  0.000  0.000  0.000  0.000  0.000  0.023
   28  0.000  0.017  0.000  0.006  0.000  0.000  0.000  0.000  0.000  0.023
   29  0.000  0.003  0.000  0.001  0.000  0.000  0.000  0.000  0.000  0.005
   30  0.000  0.017  0.000  0.006  0.000  0.000  0.000  0.000  0.000  0.023
   31  0.000  0.017  0.000  0.006  0.000  0.000  0.000  0.000  0.000  0.023
   32  0.000  0.003  0.000  0.001  0.000  0.000  0.000  0.000  0.000  0.005
   33  0.000  0.003  0.000  0.001  0.000  0.000  0.000  0.000  0.000  0.005
   34  0.000  0.003  0.000  0.001  0.000  0.000  0.000  0.000  0.000  0.005
   35  0.000  0.003  0.000  0.001  0.000  0.000  0.000  0.000  0.000  0.005
   36  0.000  0.003  0.000  0.001  0.000  0.000  0.000  0.000  0.000  0.005
tot    0.000  0.256  0.000  0.085  0.116  0.003  0.000  0.001  0.349  0.811
 
band   128 # energy    1.10311125 # occ.  0.00000000
 
ion      s     py     pz     px    dxy    dyz    dz2    dxz  x2-y2    tot
    1  0.001  0.000  0.000  0.001  0.018  0.000  0.042  0.000  0.006  0.068
    2  0.001  0.000  0.000  0.001  0.018  0.000  0.042  0.000  0.006  0.068
    3  0.001  0.000  0.000  0.001  0.018  0.000  0.042  0.000  0.006  0.068
    4  0.001  0.000  0.000  0.001  0.018  0.000  0.042  0.000  0.006  0.068
    5  0.001  0.000  0.000  0.001  0.018  0.000  0.042  0.000  0.006  0.068
    6  0.001  0.000  0.000  0.001  0.018  0.000  0.042  0.000  0.006  0.068
    7  0.001  0.000  0.000  0.001  0.018  0.000  0.042  0.000  0.006  0.068
    8  0.001  0.000  0.000  0.001  0.018  0.000  0.042  0.000  0.006  0.068
    9  0.001  0.000  0.000  0.001  0.018  0.000  0.042  0.000  0.006  0.068
   10  0.001  0.000  0.000  0.001  0.018  0.000  0.042  0.000  0.006  0.068
   11  0.001  0.000  0.000  0.001  0.018  0.000  0.042  0.000  0.006  0.068
   12  0.001  0.000  0.000  0.001  0.018  0.000  0.042  0.000  0.006  0.068
   13  0.000  0.001  0.000  0.002  0.000  0.000  0.000  0.000  0.000  0.003
   14  0.000  0.001  0.000  0.002  0.000  0.000  0.000  0.000  0.000  0.003
   15  0.000  0.001  0.000  0.002  0.000  0.000  0.000  0.000  0.000  0.003
   16  0.000  0.001  0.000  0.002  0.000  0.000  0.000  0.000  0.000  0.003
   17  0.000  0.001  0.000  0.002  0.000  0.000  0.000  0.000  0.000  0.003
   18  0.000  0.001  0.000  0.002  0.000  0.000  0.000  0.000  0.000  0.003
   19  0.000  0.001  0.000  0.002  0.000  0.000  0.000  0.000  0.000  0.003
   20  0.000  0.001  0.000  0.002  0.000  0.000  0.000  0.000  0.000  0.003
   21  0.000  0.001  0.000  0.002  0.000  0.000  0.000  0.000  0.000  0.003
   22  0.000  0.001  0.000  0.002  0.000  0.000  0.000  0.000  0.000  0.003
   23  0.000  0.001  0.000  0.002  0.000  0.000  0.000  0.000  0.000  0.003
   24  0.000  0.001  0.000  0.002  0.000  0.000  0.000  0.000  0.000  0.003
   25  0.000  0.001  0.000  0.002  0.000  0.000  0.000  0.000  0.000  0.003
   26  0.000  0.001  0.000  0.002  0.000  0.000  0.000  0.000  0.000  0.003
   27  0.000  0.001  0.000  0.002  0.000  0.000  0.000  0.000  0.000  0.003
   28  0.000  0.001  0.000  0.002  0.000  0.000  0.000  0.000  0.000  0.003
   29  0.000  0.001  0.000  0.002  0.000  0.000  0.000  0.000  0.000  0.003
   30  0.000  0.001  0.000  0.002  0.000  0.000  0.000  0.000  0.000  0.003
   31  0.000  0.001  0.000  0.002  0.000  0.000  0.000  0.000  0.000  0.003
   32  0.000  0.001  0.000  0.002  0.000  0.000  0.000  0.000  0.000  0.003
   33  0.000  0.001  0.000  0.002  0.000  0.000  0.000  0.000  0.000  0.003
   34  0.000  0.001  0.000  0.002  0.000  0.000  0.000  0.000  0.000  0.003
   35  0.000  0.001  0.000  0.002  0.000  0.000  0.000  0.000  0.000  0.003
   36  0.000  0.001  0.000  0.002  0.000  0.000  0.000  0.000  0.000  0.003
tot    0.011  0.017  0.009  0.051  0.220  0.001  0.503  0.002  0.073  0.888
 
band   129 # energy    1.12696077 # occ.  0.00000000
 
ion      s     py     pz     px    dxy    dyz    dz2    dxz  x2-y2    tot
    1  0.000  0.000  0.000  0.000  0.000  0.032  0.000  0.029  0.000  0.061
    2  0.000  0.000  0.000  0.000  0.000  0.003  0.000  0.058  0.000  0.061
    3  0.000  0.000  0.000  0.000  0.000  0.003  0.000  0.057  0.000  0.061
    4  0.000  0.000  0.000  0.000  0.000  0.014  0.000  0.005  0.000  0.019
    5  0.000  0.000  0.000  0.000  0.000  0.003  0.000  0.058  0.000  0.061
    6  0.000  0.000  0.000  0.000  0.000  0.032  0.000  0.029  0.000  0.061
    7  0.000  0.000  0.000  0.000  0.000  0.014  0.000  0.005  0.000  0.019
    8  0.000  0.000  0.000  0.000  0.000  0.032  0.000  0.029  0.000  0.061
    9  0.000  0.000  0.000  0.000  0.000  0.014  0.000  0.005  0.000  0.019
   10  0.000  0.000  0.000  0.000  0.000  0.003  0.000  0.057  0.000  0.061
   11  0.000  0.000  0.000  0.000  0.000  0.014  0.000  0.005  0.000  0.019
   12  0.000  0.000  0.000  0.000  0.000  0.032  0.000  0.029  0.000  0.061
   13  0.000  0.003  0.000  0.001  0.000  0.001  0.000  0.000  0.000  0.006
   14  0.003  0.002  0.003  0.000  0.000  0.000  0.000  0.000  0.000  0.009
   15  0.003  0.002  0.003  0.000  0.000  0.000  0.000  0.000  0.000  0.009
   16  0.003  0.000  0.003  0.002  0.001  0.000  0.000  0.000  0.000  0.009
   17  0.003  0.000  0.003  0.002  0.001  0.000  0.000  0.000  0.000  0.009
   18  0.003  0.000  0.003  0.002  0.001  0.000  0.000  0.000  0.000  0.009
   19  0.003  0.000  0.003  0.002  0.001  0.000  0.000  0.000  0.000  0.009
   20  0.000  0.003  0.000  0.001  0.000  0.001  0.000  0.000  0.000  0.006
   21  0.003  0.002  0.003  0.000  0.000  0.000  0.000  0.000  0.000  0.009
   22  0.003  0.002  0.003  0.000  0.000  0.000  0.000  0.000  0.000  0.009
   23  0.000  0.003  0.000  0.001  0.000  0.001  0.000  0.000  0.000  0.006
   24  0.000  0.003  0.000  0.001  0.000  0.001  0.000  0.000  0.000  0.006
   25  0.003  0.002  0.003  0.000  0.000  0.000  0.000  0.000  0.000  0.009
   26  0.003  0.002  0.003  0.000  0.000  0.000  0.000  0.000  0.000  0.009
   27  0.000  0.003  0.000  0.001  0.000  0.001  0.000  0.000  0.000  0.006
   28  0.000  0.003  0.000  0.001  0.000  0.001  0.000  0.000  0.000  0.006
   29  0.003  0.000  0.003  0.002  0.001  0.000  0.000  0.000  0.000  0.009
   30  0.003  0.000  0.003  0.002  0.001  0.000  0.000  0.000  0.000  0.009
   31  0.003  0.000  0.003  0.002  0.001  0.000  0.000  0.000  0.000  0.009
   32  0.003  0.000  0.003  0.002  0.001  0.000  0.000  0.000  0.000  0.009
   33  0.003  0.002  0.003  0.000  0.000  0.000  0.000  0.000  0.000  0.009
   34  0.003  0.002  0.003  0.000  0.000  0.000  0.000  0.000  0.000  0.009
   35  0.000  0.003  0.000  0.001  0.000  0.001  0.000  0.000  0.000  0.006
   36  0.000  0.003  0.000  0.001  0.000  0.001  0.000  0.000  0.000  0.006
tot    0.045  0.043  0.043  0.029  0.008  0.208  0.001  0.370  0.008  0.754
 
band   130 # energy    1.12701402 # occ.  0.00000000
 
ion      s     py     pz     px    dxy    dyz    dz2    dxz  x2-y2    tot
    1  0.000  0.000  0.000  0.000  0.000  0.001  0.000  0.032  0.000  0.033
    2  0.000  0.000  0.000  0.000  0.000  0.030  0.000  0.003  0.000  0.033
    3  0.000  0.000  0.000  0.000  0.000  0.029  0.000  0.003  0.000  0.033
    4  0.000  0.000  0.000  0.000  0.000  0.019  0.000  0.056  0.000  0.075
    5  0.000  0.000  0.000  0.000  0.000  0.030  0.000  0.003  0.000  0.033
    6  0.000  0.000  0.000  0.000  0.000  0.001  0.000  0.032  0.000  0.033
    7  0.000  0.000  0.000  0.000  0.000  0.019  0.000  0.056  0.000  0.076
    8  0.000  0.000  0.000  0.000  0.000  0.001  0.000  0.032  0.000  0.033
    9  0.000  0.000  0.000  0.000  0.000  0.019  0.000  0.056  0.000  0.076
   10  0.000  0.000  0.000  0.000  0.000  0.029  0.000  0.003  0.000  0.033
   11  0.000  0.000  0.000  0.000  0.000  0.019  0.000  0.056  0.000  0.075
   12  0.000  0.000  0.000  0.000  0.000  0.001  0.000  0.032  0.000  0.033
   13  0.004  0.000  0.003  0.001  0.000  0.000  0.000  0.000  0.000  0.010
   14  0.001  0.001  0.001  0.002  0.000  0.000  0.000  0.000  0.000  0.007
   15  0.001  0.001  0.001  0.002  0.000  0.000  0.000  0.000  0.000  0.007
   16  0.001  0.003  0.001  0.000  0.000  0.001  0.000  0.000  0.001  0.007
   17  0.001  0.003  0.001  0.000  0.000  0.001  0.000  0.000  0.001  0.007
   18  0.001  0.003  0.001  0.000  0.000  0.001  0.000  0.000  0.001  0.007
   19  0.001  0.003  0.001  0.000  0.000  0.001  0.000  0.000  0.001  0.007
   20  0.004  0.000  0.003  0.001  0.000  0.000  0.000  0.000  0.000  0.010
   21  0.001  0.001  0.001  0.002  0.000  0.000  0.000  0.000  0.000  0.007
   22  0.001  0.001  0.001  0.002  0.000  0.000  0.000  0.000  0.000  0.007
   23  0.004  0.000  0.003  0.001  0.000  0.000  0.000  0.000  0.000  0.010
   24  0.004  0.000  0.003  0.001  0.000  0.000  0.000  0.000  0.000  0.010
   25  0.001  0.001  0.001  0.002  0.000  0.000  0.000  0.000  0.000  0.007
   26  0.001  0.001  0.001  0.002  0.000  0.000  0.000  0.000  0.000  0.007
   27  0.004  0.000  0.003  0.001  0.000  0.000  0.000  0.000  0.000  0.010
   28  0.004  0.000  0.003  0.001  0.000  0.000  0.000  0.000  0.000  0.010
   29  0.001  0.003  0.001  0.000  0.000  0.001  0.000  0.000  0.001  0.007
   30  0.001  0.003  0.001  0.000  0.000  0.001  0.000  0.000  0.001  0.007
   31  0.001  0.003  0.001  0.000  0.000  0.001  0.000  0.000  0.001  0.007
   32  0.001  0.003  0.001  0.000  0.000  0.001  0.000  0.000  0.001  0.007
   33  0.001  0.001  0.001  0.002  0.000  0.000  0.000  0.000  0.000  0.007
   34  0.001  0.001  0.001  0.002  0.000  0.000  0.000  0.000  0.000  0.007
   35  0.004  0.000  0.003  0.001  0.000  0.000  0.000  0.000  0.000  0.010
   36  0.004  0.000  0.003  0.001  0.000  0.000  0.000  0.000  0.000  0.010
tot    0.045  0.043  0.043  0.029  0.008  0.208  0.001  0.370  0.008  0.754
 
band   131 # energy    1.33796553 # occ.  0.00000000
 
ion      s     py     pz     px    dxy    dyz    dz2    dxz  x2-y2    tot
    1  0.000  0.000  0.001  0.000  0.000  0.001  0.000  0.002  0.000  0.004
    2  0.000  0.000  0.001  0.000  0.000  0.021  0.000  0.063  0.000  0.085
    3  0.000  0.000  0.001  0.000  0.000  0.001  0.000  0.002  0.000  0.004
    4  0.000  0.000  0.001  0.000  0.000  0.001  0.000  0.002  0.000  0.004
    5  0.000  0.000  0.001  0.000  0.000  0.021  0.000  0.063  0.000  0.085
    6  0.000  0.000  0.001  0.000  0.000  0.021  0.000  0.063  0.000  0.085
    7  0.000  0.000  0.001  0.000  0.000  0.021  0.000  0.063  0.000  0.085
    8  0.000  0.000  0.001  0.000  0.000  0.021  0.000  0.063  0.000  0.085
    9  0.000  0.000  0.001  0.000  0.000  0.021  0.000  0.063  0.000  0.085
   10  0.000  0.000  0.001  0.000  0.000  0.001  0.000  0.002  0.000  0.004
   11  0.000  0.000  0.001  0.000  0.000  0.001  0.000  0.002  0.000  0.004
   12  0.000  0.000  0.001  0.000  0.000  0.001  0.000  0.002  0.000  0.004
   13  0.003  0.000  0.001  0.000  0.001  0.000  0.000  0.000  0.000  0.005
   14  0.003  0.000  0.001  0.000  0.001  0.000  0.000  0.000  0.000  0.005
   15  0.003  0.000  0.001  0.000  0.001  0.000  0.000  0.000  0.000  0.005
   16  0.001  0.001  0.005  0.004  0.000  0.000  0.000  0.001  0.000  0.012
   17  0.001  0.001  0.005  0.004  0.000  0.000  0.000  0.001  0.000  0.013
   18  0.003  0.000  0.001  0.000  0.001  0.000  0.000  0.000  0.000  0.005
   19  0.003  0.000  0.001  0.000  0.001  0.000  0.000  0.000  0.000  0.005
   20  0.003  0.000  0.001  0.000  0.001  0.000  0.000  0.000  0.000  0.005
   21  0.003  0.000  0.001  0.000  0.001  0.000  0.000  0.000  0.000  0.005
   22  0.003  0.000  0.001  0.000  0.001  0.000  0.000  0.000  0.000  0.005
   23  0.001  0.001  0.005  0.004  0.000  0.000  0.000  0.001  0.000  0.012
   24  0.001  0.001  0.005  0.004  0.000  0.000  0.000  0.001  0.000  0.012
   25  0.001  0.001  0.005  0.004  0.000  0.000  0.000  0.001  0.000  0.012
   26  0.001  0.001  0.005  0.004  0.000  0.000  0.000  0.001  0.000  0.013
   27  0.003  0.000  0.001  0.000  0.001  0.000  0.000  0.000  0.000  0.005
   28  0.003  0.000  0.001  0.000  0.001  0.000  0.000  0.000  0.000  0.005
   29  0.001  0.001  0.005  0.004  0.000  0.000  0.000  0.001  0.000  0.012
   30  0.003  0.000  0.001  0.000  0.001  0.000  0.000  0.000  0.000  0.005
   31  0.003  0.000  0.001  0.000  0.001  0.000  0.000  0.000  0.000  0.005
   32  0.001  0.001  0.005  0.004  0.000  0.000  0.000  0.001  0.000  0.013
   33  0.001  0.001  0.005  0.004  0.000  0.000  0.000  0.001  0.000  0.013
   34  0.001  0.001  0.005  0.004  0.000  0.000  0.000  0.001  0.000  0.012
   35  0.001  0.001  0.005  0.004  0.000  0.000  0.000  0.001  0.000  0.012
   36  0.001  0.001  0.005  0.004  0.000  0.000  0.000  0.001  0.000  0.012
tot    0.052  0.016  0.081  0.049  0.011  0.134  0.001  0.401  0.004  0.749
 
band   132 # energy    1.33857364 # occ.  0.00000000
 
ion      s     py     pz     px    dxy    dyz    dz2    dxz  x2-y2    tot
    1  0.000  0.000  0.001  0.000  0.000  0.021  0.000  0.063  0.000  0.085
    2  0.000  0.000  0.001  0.000  0.000  0.001  0.000  0.002  0.000  0.004
    3  0.000  0.000  0.001  0.000  0.000  0.021  0.000  0.063  0.000  0.085
    4  0.000  0.000  0.001  0.000  0.000  0.021  0.000  0.063  0.000  0.085
    5  0.000  0.000  0.001  0.000  0.000  0.001  0.000  0.002  0.000  0.004
    6  0.000  0.000  0.001  0.000  0.000  0.001  0.000  0.002  0.000  0.004
    7  0.000  0.000  0.001  0.000  0.000  0.001  0.000  0.002  0.000  0.004
    8  0.000  0.000  0.001  0.000  0.000  0.001  0.000  0.002  0.000  0.004
    9  0.000  0.000  0.001  0.000  0.000  0.001  0.000  0.002  0.000  0.004
   10  0.000  0.000  0.001  0.000  0.000  0.021  0.000  0.063  0.000  0.085
   11  0.000  0.000  0.001  0.000  0.000  0.021  0.000  0.063  0.000  0.085
   12  0.000  0.000  0.001  0.000  0.000  0.021  0.000  0.063  0.000  0.085
   13  0.001  0.001  0.005  0.004  0.000  0.000  0.000  0.001  0.000  0.012
   14  0.001  0.001  0.005  0.004  0.000  0.000  0.000  0.001  0.000  0.013
   15  0.001  0.001  0.005  0.004  0.000  0.000  0.000  0.001  0.000  0.012
   16  0.003  0.000  0.001  0.000  0.001  0.000  0.000  0.000  0.000  0.005
   17  0.003  0.000  0.001  0.000  0.001  0.000  0.000  0.000  0.000  0.005
   18  0.001  0.001  0.005  0.004  0.000  0.000  0.000  0.001  0.000  0.012
   19  0.001  0.001  0.005  0.004  0.000  0.000  0.000  0.001  0.000  0.013
   20  0.001  0.001  0.005  0.004  0.000  0.000  0.000  0.001  0.000  0.012
   21  0.001  0.001  0.005  0.004  0.000  0.000  0.000  0.001  0.000  0.013
   22  0.001  0.001  0.005  0.004  0.000  0.000  0.000  0.001  0.000  0.012
   23  0.003  0.000  0.001  0.000  0.001  0.000  0.000  0.000  0.000  0.005
   24  0.003  0.000  0.001  0.000  0.001  0.000  0.000  0.000  0.000  0.005
   25  0.003  0.000  0.001  0.000  0.001  0.000  0.000  0.000  0.000  0.005
   26  0.003  0.000  0.001  0.000  0.001  0.000  0.000  0.000  0.000  0.005
   27  0.001  0.001  0.005  0.004  0.000  0.000  0.000  0.001  0.000  0.012
   28  0.001  0.001  0.005  0.004  0.000  0.000  0.000  0.001  0.000  0.012
   29  0.003  0.000  0.001  0.000  0.001  0.000  0.000  0.000  0.000  0.005
   30  0.001  0.001  0.005  0.004  0.000  0.000  0.000  0.001  0.000  0.013
   31  0.001  0.001  0.005  0.004  0.000  0.000  0.000  0.001  0.000  0.012
   32  0.003  0.000  0.001  0.000  0.001  0.000  0.000  0.000  0.000  0.005
   33  0.003  0.000  0.001  0.000  0.001  0.000  0.000  0.000  0.000  0.005
   34  0.003  0.000  0.001  0.000  0.001  0.000  0.000  0.000  0.000  0.005
   35  0.003  0.000  0.001  0.000  0.001  0.000  0.000  0.000  0.000  0.005
   36  0.003  0.000  0.001  0.000  0.001  0.000  0.000  0.000  0.000  0.005
tot    0.052  0.016  0.081  0.049  0.011  0.134  0.001  0.401  0.004  0.749
 
band   133 # energy    1.42620758 # occ.  0.00000000
 
ion      s     py     pz     px    dxy    dyz    dz2    dxz  x2-y2    tot
    1  0.000  0.000  0.000  0.000  0.000  0.010  0.000  0.033  0.000  0.044
    2  0.000  0.000  0.000  0.000  0.000  0.043  0.000  0.000  0.000  0.043
    3  0.000  0.000  0.000  0.000  0.000  0.044  0.000  0.000  0.000  0.044
    4  0.000  0.000  0.000  0.000  0.000  0.012  0.000  0.034  0.000  0.046
    5  0.000  0.000  0.000  0.000  0.000  0.043  0.000  0.000  0.000  0.043
    6  0.000  0.000  0.000  0.000  0.000  0.010  0.000  0.033  0.000  0.043
    7  0.000  0.000  0.000  0.000  0.000  0.011  0.000  0.034  0.000  0.045
    8  0.000  0.000  0.000  0.000  0.000  0.010  0.000  0.033  0.000  0.043
    9  0.000  0.000  0.000  0.000  0.000  0.011  0.000  0.034  0.000  0.045
   10  0.000  0.000  0.000  0.000  0.000  0.044  0.000  0.000  0.000  0.044
   11  0.000  0.000  0.000  0.000  0.000  0.012  0.000  0.034  0.000  0.046
   12  0.000  0.000  0.000  0.000  0.000  0.010  0.000  0.033  0.000  0.044
   13  0.000  0.001  0.000  0.004  0.000  0.000  0.000  0.001  0.000  0.008
   14  0.000  0.006  0.000  0.000  0.000  0.002  0.000  0.000  0.000  0.008
   15  0.000  0.006  0.000  0.000  0.000  0.002  0.000  0.000  0.000  0.008
   16  0.000  0.001  0.000  0.004  0.000  0.000  0.000  0.001  0.000  0.008
   17  0.000  0.001  0.000  0.004  0.000  0.000  0.000  0.001  0.000  0.008
   18  0.000  0.001  0.000  0.004  0.000  0.000  0.000  0.001  0.000  0.008
   19  0.000  0.001  0.000  0.004  0.000  0.000  0.000  0.001  0.000  0.008
   20  0.000  0.001  0.000  0.004  0.000  0.000  0.000  0.001  0.000  0.008
   21  0.000  0.006  0.000  0.000  0.000  0.002  0.000  0.000  0.000  0.008
   22  0.000  0.006  0.000  0.000  0.000  0.002  0.000  0.000  0.000  0.008
   23  0.000  0.001  0.000  0.004  0.000  0.000  0.000  0.001  0.000  0.008
   24  0.000  0.001  0.000  0.004  0.000  0.000  0.000  0.001  0.000  0.008
   25  0.000  0.006  0.000  0.000  0.000  0.002  0.000  0.000  0.000  0.008
   26  0.000  0.006  0.000  0.000  0.000  0.002  0.000  0.000  0.000  0.008
   27  0.000  0.001  0.000  0.004  0.000  0.000  0.000  0.001  0.000  0.008
   28  0.000  0.001  0.000  0.004  0.000  0.000  0.000  0.001  0.000  0.008
   29  0.000  0.001  0.000  0.004  0.000  0.000  0.000  0.001  0.000  0.008
   30  0.000  0.001  0.000  0.004  0.000  0.000  0.000  0.001  0.000  0.008
   31  0.000  0.001  0.000  0.004  0.000  0.000  0.000  0.001  0.000  0.008
   32  0.000  0.001  0.000  0.004  0.000  0.000  0.000  0.001  0.000  0.008
   33  0.000  0.006  0.000  0.000  0.000  0.002  0.000  0.000  0.000  0.008
   34  0.000  0.006  0.000  0.000  0.000  0.002  0.000  0.000  0.000  0.008
   35  0.000  0.001  0.000  0.004  0.000  0.000  0.000  0.001  0.000  0.008
   36  0.000  0.001  0.000  0.004  0.000  0.000  0.000  0.001  0.000  0.008
tot    0.000  0.067  0.000  0.068  0.005  0.282  0.000  0.290  0.005  0.716
 
band   134 # energy    1.42622064 # occ.  0.00000000
 
ion      s     py     pz     px    dxy    dyz    dz2    dxz  x2-y2    tot
    1  0.000  0.000  0.000  0.000  0.000  0.033  0.000  0.012  0.000  0.045
    2  0.000  0.000  0.000  0.000  0.000  0.000  0.000  0.045  0.000  0.045
    3  0.000  0.000  0.000  0.000  0.000  0.000  0.000  0.045  0.000  0.045
    4  0.000  0.000  0.000  0.000  0.000  0.032  0.000  0.011  0.000  0.043
    5  0.000  0.000  0.000  0.000  0.000  0.000  0.000  0.045  0.000  0.045
    6  0.000  0.000  0.000  0.000  0.000  0.033  0.000  0.012  0.000  0.045
    7  0.000  0.000  0.000  0.000  0.000  0.032  0.000  0.011  0.000  0.043
    8  0.000  0.000  0.000  0.000  0.000  0.033  0.000  0.012  0.000  0.045
    9  0.000  0.000  0.000  0.000  0.000  0.032  0.000  0.011  0.000  0.043
   10  0.000  0.000  0.000  0.000  0.000  0.000  0.000  0.045  0.000  0.045
   11  0.000  0.000  0.000  0.000  0.000  0.032  0.000  0.011  0.000  0.043
   12  0.000  0.000  0.000  0.000  0.000  0.033  0.000  0.012  0.000  0.045
   13  0.000  0.004  0.000  0.001  0.000  0.001  0.000  0.000  0.000  0.008
   14  0.000  0.000  0.000  0.006  0.000  0.000  0.000  0.002  0.000  0.008
   15  0.000  0.000  0.000  0.006  0.000  0.000  0.000  0.002  0.000  0.008
   16  0.000  0.004  0.000  0.001  0.000  0.001  0.000  0.000  0.000  0.008
   17  0.000  0.004  0.000  0.001  0.000  0.001  0.000  0.000  0.000  0.008
   18  0.000  0.004  0.000  0.001  0.000  0.001  0.000  0.000  0.000  0.008
   19  0.000  0.004  0.000  0.001  0.000  0.001  0.000  0.000  0.000  0.008
   20  0.000  0.004  0.000  0.001  0.000  0.001  0.000  0.000  0.000  0.008
   21  0.000  0.000  0.000  0.006  0.000  0.000  0.000  0.002  0.000  0.008
   22  0.000  0.000  0.000  0.006  0.000  0.000  0.000  0.002  0.000  0.008
   23  0.000  0.004  0.000  0.001  0.000  0.001  0.000  0.000  0.000  0.008
   24  0.000  0.004  0.000  0.001  0.000  0.001  0.000  0.000  0.000  0.008
   25  0.000  0.000  0.000  0.006  0.000  0.000  0.000  0.002  0.000  0.008
   26  0.000  0.000  0.000  0.006  0.000  0.000  0.000  0.002  0.000  0.008
   27  0.000  0.004  0.000  0.001  0.000  0.001  0.000  0.000  0.000  0.008
   28  0.000  0.004  0.000  0.001  0.000  0.001  0.000  0.000  0.000  0.008
   29  0.000  0.004  0.000  0.001  0.000  0.001  0.000  0.000  0.000  0.008
   30  0.000  0.004  0.000  0.001  0.000  0.001  0.000  0.000  0.000  0.008
   31  0.000  0.004  0.000  0.001  0.000  0.001  0.000  0.000  0.000  0.008
   32  0.000  0.004  0.000  0.001  0.000  0.001  0.000  0.000  0.000  0.008
   33  0.000  0.000  0.000  0.006  0.000  0.000  0.000  0.002  0.000  0.008
   34  0.000  0.000  0.000  0.006  0.000  0.000  0.000  0.002  0.000  0.008
   35  0.000  0.004  0.000  0.001  0.000  0.001  0.000  0.000  0.000  0.008
   36  0.000  0.004  0.000  0.001  0.000  0.001  0.000  0.000  0.000  0.008
tot    0.000  0.067  0.000  0.068  0.005  0.282  0.000  0.290  0.005  0.716
 
band   135 # energy    1.67392208 # occ.  0.00000000
 
ion      s     py     pz     px    dxy    dyz    dz2    dxz  x2-y2    tot
    1  0.000  0.000  0.000  0.000  0.000  0.006  0.000  0.019  0.000  0.025
    2  0.000  0.000  0.000  0.000  0.000  0.006  0.000  0.019  0.000  0.025
    3  0.000  0.000  0.000  0.000  0.000  0.006  0.000  0.019  0.000  0.025
    4  0.000  0.000  0.000  0.000  0.000  0.006  0.000  0.019  0.000  0.025
    5  0.000  0.000  0.000  0.000  0.000  0.006  0.000  0.019  0.000  0.025
    6  0.000  0.000  0.000  0.000  0.000  0.006  0.000  0.019  0.000  0.025
    7  0.000  0.000  0.000  0.000  0.000  0.006  0.000  0.019  0.000  0.025
    8  0.000  0.000  0.000  0.000  0.000  0.006  0.000  0.019  0.000  0.025
    9  0.000  0.000  0.000  0.000  0.000  0.006  0.000  0.019  0.000  0.025
   10  0.000  0.000  0.000  0.000  0.000  0.006  0.000  0.019  0.000  0.025
   11  0.000  0.000  0.000  0.000  0.000  0.006  0.000  0.019  0.000  0.025
   12  0.000  0.000  0.000  0.000  0.000  0.006  0.000  0.019  0.000  0.025
   13  0.000  0.005  0.000  0.014  0.001  0.000  0.000  0.000  0.000  0.019
   14  0.000  0.005  0.000  0.014  0.001  0.000  0.000  0.000  0.000  0.019
   15  0.000  0.005  0.000  0.014  0.001  0.000  0.000  0.000  0.000  0.019
   16  0.000  0.005  0.000  0.014  0.001  0.000  0.000  0.000  0.000  0.019
   17  0.000  0.005  0.000  0.014  0.001  0.000  0.000  0.000  0.000  0.019
   18  0.000  0.005  0.000  0.014  0.001  0.000  0.000  0.000  0.000  0.019
   19  0.000  0.005  0.000  0.014  0.001  0.000  0.000  0.000  0.000  0.019
   20  0.000  0.005  0.000  0.014  0.001  0.000  0.000  0.000  0.000  0.019
   21  0.000  0.005  0.000  0.014  0.001  0.000  0.000  0.000  0.000  0.019
   22  0.000  0.005  0.000  0.014  0.001  0.000  0.000  0.000  0.000  0.019
   23  0.000  0.005  0.000  0.014  0.001  0.000  0.000  0.000  0.000  0.019
   24  0.000  0.005  0.000  0.014  0.001  0.000  0.000  0.000  0.000  0.019
   25  0.000  0.005  0.000  0.014  0.001  0.000  0.000  0.000  0.000  0.019
   26  0.000  0.005  0.000  0.014  0.001  0.000  0.000  0.000  0.000  0.019
   27  0.000  0.005  0.000  0.014  0.001  0.000  0.000  0.000  0.000  0.019
   28  0.000  0.005  0.000  0.014  0.001  0.000  0.000  0.000  0.000  0.019
   29  0.000  0.005  0.000  0.014  0.001  0.000  0.000  0.000  0.000  0.019
   30  0.000  0.005  0.000  0.014  0.001  0.000  0.000  0.000  0.000  0.019
   31  0.000  0.005  0.000  0.014  0.001  0.000  0.000  0.000  0.000  0.019
   32  0.000  0.005  0.000  0.014  0.001  0.000  0.000  0.000  0.000  0.019
   33  0.000  0.005  0.000  0.014  0.001  0.000  0.000  0.000  0.000  0.019
   34  0.000  0.005  0.000  0.014  0.001  0.000  0.000  0.000  0.000  0.019
   35  0.000  0.005  0.000  0.014  0.001  0.000  0.000  0.000  0.000  0.019
   36  0.000  0.005  0.000  0.014  0.001  0.000  0.000  0.000  0.000  0.019
tot    0.000  0.112  0.000  0.336  0.013  0.075  0.000  0.224  0.004  0.764
 
band   136 # energy    1.74174937 # occ.  0.00000000
 
ion      s     py     pz     px    dxy    dyz    dz2    dxz  x2-y2    tot
    1  0.000  0.000  0.000  0.000  0.000  0.019  0.000  0.006  0.000  0.025
    2  0.000  0.000  0.000  0.000  0.000  0.019  0.000  0.006  0.000  0.025
    3  0.000  0.000  0.000  0.000  0.000  0.019  0.000  0.006  0.000  0.025
    4  0.000  0.000  0.000  0.000  0.000  0.019  0.000  0.006  0.000  0.025
    5  0.000  0.000  0.000  0.000  0.000  0.019  0.000  0.006  0.000  0.025
    6  0.000  0.000  0.000  0.000  0.000  0.019  0.000  0.006  0.000  0.025
    7  0.000  0.000  0.000  0.000  0.000  0.019  0.000  0.006  0.000  0.025
    8  0.000  0.000  0.000  0.000  0.000  0.019  0.000  0.006  0.000  0.025
    9  0.000  0.000  0.000  0.000  0.000  0.019  0.000  0.006  0.000  0.025
   10  0.000  0.000  0.000  0.000  0.000  0.019  0.000  0.006  0.000  0.025
   11  0.000  0.000  0.000  0.000  0.000  0.019  0.000  0.006  0.000  0.025
   12  0.000  0.000  0.000  0.000  0.000  0.019  0.000  0.006  0.000  0.025
   13  0.000  0.014  0.000  0.005  0.000  0.000  0.000  0.000  0.001  0.019
   14  0.000  0.014  0.000  0.005  0.000  0.000  0.000  0.000  0.001  0.019
   15  0.000  0.014  0.000  0.005  0.000  0.000  0.000  0.000  0.001  0.019
   16  0.000  0.014  0.000  0.005  0.000  0.000  0.000  0.000  0.001  0.019
   17  0.000  0.014  0.000  0.005  0.000  0.000  0.000  0.000  0.001  0.019
   18  0.000  0.014  0.000  0.005  0.000  0.000  0.000  0.000  0.001  0.019
   19  0.000  0.014  0.000  0.005  0.000  0.000  0.000  0.000  0.001  0.019
   20  0.000  0.014  0.000  0.005  0.000  0.000  0.000  0.000  0.001  0.019
   21  0.000  0.014  0.000  0.005  0.000  0.000  0.000  0.000  0.001  0.019
   22  0.000  0.014  0.000  0.005  0.000  0.000  0.000  0.000  0.001  0.019
   23  0.000  0.014  0.000  0.005  0.000  0.000  0.000  0.000  0.001  0.019
   24  0.000  0.014  0.000  0.005  0.000  0.000  0.000  0.000  0.001  0.019
   25  0.000  0.014  0.000  0.005  0.000  0.000  0.000  0.000  0.001  0.019
   26  0.000  0.014  0.000  0.005  0.000  0.000  0.000  0.000  0.001  0.019
   27  0.000  0.014  0.000  0.005  0.000  0.000  0.000  0.000  0.001  0.019
   28  0.000  0.014  0.000  0.005  0.000  0.000  0.000  0.000  0.001  0.019
   29  0.000  0.014  0.000  0.005  0.000  0.000  0.000  0.000  0.001  0.019
   30  0.000  0.014  0.000  0.005  0.000  0.000  0.000  0.000  0.001  0.019
   31  0.000  0.014  0.000  0.005  0.000  0.000  0.000  0.000  0.001  0.019
   32  0.000  0.014  0.000  0.005  0.000  0.000  0.000  0.000  0.001  0.019
   33  0.000  0.014  0.000  0.005  0.000  0.000  0.000  0.000  0.001  0.019
   34  0.000  0.014  0.000  0.005  0.000  0.000  0.000  0.000  0.001  0.019
   35  0.000  0.014  0.000  0.005  0.000  0.000  0.000  0.000  0.001  0.019
   36  0.000  0.014  0.000  0.005  0.000  0.000  0.000  0.000  0.001  0.019
tot    0.000  0.330  0.000  0.110  0.004  0.229  0.000  0.076  0.013  0.764
 
band   137 # energy    1.90240532 # occ.  0.00000000
 
ion      s     py     pz     px    dxy    dyz    dz2    dxz  x2-y2    tot
    1  0.000  0.000  0.000  0.002  0.056  0.000  0.000  0.000  0.000  0.059
    2  0.000  0.002  0.000  0.001  0.014  0.000  0.000  0.000  0.042  0.059
    3  0.000  0.002  0.000  0.001  0.014  0.000  0.000  0.000  0.042  0.059
    4  0.000  0.002  0.000  0.001  0.014  0.000  0.000  0.000  0.042  0.058
    5  0.000  0.002  0.000  0.001  0.014  0.000  0.000  0.000  0.042  0.059
    6  0.000  0.000  0.000  0.002  0.056  0.000  0.000  0.000  0.000  0.059
    7  0.000  0.002  0.000  0.001  0.014  0.000  0.000  0.000  0.042  0.058
    8  0.000  0.000  0.000  0.002  0.056  0.000  0.000  0.000  0.000  0.059
    9  0.000  0.002  0.000  0.001  0.014  0.000  0.000  0.000  0.042  0.058
   10  0.000  0.002  0.000  0.001  0.014  0.000  0.000  0.000  0.042  0.059
   11  0.000  0.002  0.000  0.001  0.014  0.000  0.000  0.000  0.042  0.058
   12  0.000  0.000  0.000  0.002  0.056  0.000  0.000  0.000  0.000  0.059
   13  0.000  0.000  0.000  0.000  0.000  0.000  0.000  0.000  0.000  0.000
   14  0.000  0.000  0.010  0.000  0.000  0.000  0.000  0.000  0.000  0.010
   15  0.000  0.000  0.010  0.000  0.000  0.000  0.000  0.000  0.000  0.010
   16  0.000  0.000  0.010  0.000  0.000  0.000  0.000  0.000  0.000  0.010
   17  0.000  0.000  0.010  0.000  0.000  0.000  0.000  0.000  0.000  0.010
   18  0.000  0.000  0.010  0.000  0.000  0.000  0.000  0.000  0.000  0.010
   19  0.000  0.000  0.010  0.000  0.000  0.000  0.000  0.000  0.000  0.010
   20  0.000  0.000  0.000  0.000  0.000  0.000  0.000  0.000  0.000  0.000
   21  0.000  0.000  0.010  0.000  0.000  0.000  0.000  0.000  0.000  0.010
   22  0.000  0.000  0.010  0.000  0.000  0.000  0.000  0.000  0.000  0.010
   23  0.000  0.000  0.000  0.000  0.000  0.000  0.000  0.000  0.000  0.000
   24  0.000  0.000  0.000  0.000  0.000  0.000  0.000  0.000  0.000  0.000
   25  0.000  0.000  0.010  0.000  0.000  0.000  0.000  0.000  0.000  0.010
   26  0.000  0.000  0.010  0.000  0.000  0.000  0.000  0.000  0.000  0.010
   27  0.000  0.000  0.000  0.000  0.000  0.000  0.000  0.000  0.000  0.000
   28  0.000  0.000  0.000  0.000  0.000  0.000  0.000  0.000  0.000  0.000
   29  0.000  0.000  0.010  0.000  0.000  0.000  0.000  0.000  0.000  0.010
   30  0.000  0.000  0.010  0.000  0.000  0.000  0.000  0.000  0.000  0.010
   31  0.000  0.000  0.010  0.000  0.000  0.000  0.000  0.000  0.000  0.010
   32  0.000  0.000  0.010  0.000  0.000  0.000  0.000  0.000  0.000  0.010
   33  0.000  0.000  0.010  0.000  0.000  0.000  0.000  0.000  0.000  0.010
   34  0.000  0.000  0.010  0.000  0.000  0.000  0.000  0.000  0.000  0.010
   35  0.000  0.000  0.000  0.000  0.000  0.000  0.000  0.000  0.000  0.000
   36  0.000  0.000  0.000  0.000  0.000  0.000  0.000  0.000  0.000  0.000
tot    0.006  0.015  0.154  0.015  0.336  0.000  0.007  0.000  0.335  0.869
 
band   138 # energy    1.90259338 # occ.  0.00000000
 
ion      s     py     pz     px    dxy    dyz    dz2    dxz  x2-y2    tot
    1  0.000  0.003  0.000  0.000  0.000  0.000  0.000  0.000  0.056  0.058
    2  0.000  0.001  0.000  0.002  0.042  0.000  0.000  0.000  0.014  0.058
    3  0.000  0.001  0.000  0.002  0.042  0.000  0.000  0.000  0.014  0.058
    4  0.000  0.001  0.000  0.002  0.042  0.000  0.000  0.000  0.014  0.058
    5  0.000  0.001  0.000  0.002  0.042  0.000  0.000  0.000  0.014  0.058
    6  0.000  0.003  0.000  0.000  0.000  0.000  0.000  0.000  0.056  0.058
    7  0.000  0.001  0.000  0.002  0.042  0.000  0.000  0.000  0.014  0.058
    8  0.000  0.003  0.000  0.000  0.000  0.000  0.000  0.000  0.056  0.058
    9  0.000  0.001  0.000  0.002  0.042  0.000  0.000  0.000  0.014  0.058
   10  0.000  0.001  0.000  0.002  0.042  0.000  0.000  0.000  0.014  0.058
   11  0.000  0.001  0.000  0.002  0.042  0.000  0.000  0.000  0.014  0.058
   12  0.000  0.003  0.000  0.000  0.000  0.000  0.000  0.000  0.056  0.058
   13  0.001  0.000  0.013  0.000  0.000  0.000  0.001  0.000  0.000  0.014
   14  0.000  0.000  0.003  0.000  0.000  0.000  0.000  0.000  0.000  0.003
   15  0.000  0.000  0.003  0.000  0.000  0.000  0.000  0.000  0.000  0.003
   16  0.000  0.000  0.003  0.000  0.000  0.000  0.000  0.000  0.000  0.003
   17  0.000  0.000  0.003  0.000  0.000  0.000  0.000  0.000  0.000  0.003
   18  0.000  0.000  0.003  0.000  0.000  0.000  0.000  0.000  0.000  0.003
   19  0.000  0.000  0.003  0.000  0.000  0.000  0.000  0.000  0.000  0.003
   20  0.001  0.000  0.013  0.000  0.000  0.000  0.001  0.000  0.000  0.014
   21  0.000  0.000  0.003  0.000  0.000  0.000  0.000  0.000  0.000  0.003
   22  0.000  0.000  0.003  0.000  0.000  0.000  0.000  0.000  0.000  0.003
   23  0.001  0.000  0.013  0.000  0.000  0.000  0.001  0.000  0.000  0.014
   24  0.001  0.000  0.013  0.000  0.000  0.000  0.001  0.000  0.000  0.014
   25  0.000  0.000  0.003  0.000  0.000  0.000  0.000  0.000  0.000  0.003
   26  0.000  0.000  0.003  0.000  0.000  0.000  0.000  0.000  0.000  0.003
   27  0.001  0.000  0.013  0.000  0.000  0.000  0.001  0.000  0.000  0.014
   28  0.001  0.000  0.013  0.000  0.000  0.000  0.001  0.000  0.000  0.014
   29  0.000  0.000  0.003  0.000  0.000  0.000  0.000  0.000  0.000  0.003
   30  0.000  0.000  0.003  0.000  0.000  0.000  0.000  0.000  0.000  0.003
   31  0.000  0.000  0.003  0.000  0.000  0.000  0.000  0.000  0.000  0.003
   32  0.000  0.000  0.003  0.000  0.000  0.000  0.000  0.000  0.000  0.003
   33  0.000  0.000  0.003  0.000  0.000  0.000  0.000  0.000  0.000  0.003
   34  0.000  0.000  0.003  0.000  0.000  0.000  0.000  0.000  0.000  0.003
   35  0.001  0.000  0.013  0.000  0.000  0.000  0.001  0.000  0.000  0.014
   36  0.001  0.000  0.013  0.000  0.000  0.000  0.001  0.000  0.000  0.014
tot    0.006  0.015  0.154  0.015  0.336  0.000  0.007  0.000  0.336  0.869
 
band   139 # energy    1.92406640 # occ.  0.00000000
 
ion      s     py     pz     px    dxy    dyz    dz2    dxz  x2-y2    tot
    1  0.000  0.001  0.000  0.000  0.006  0.000  0.000  0.000  0.017  0.024
    2  0.000  0.001  0.000  0.000  0.006  0.000  0.000  0.000  0.017  0.024
    3  0.000  0.001  0.000  0.000  0.006  0.000  0.000  0.000  0.017  0.024
    4  0.000  0.001  0.000  0.000  0.006  0.000  0.000  0.000  0.017  0.024
    5  0.000  0.001  0.000  0.000  0.006  0.000  0.000  0.000  0.017  0.024
    6  0.000  0.001  0.000  0.000  0.006  0.000  0.000  0.000  0.017  0.024
    7  0.000  0.001  0.000  0.000  0.006  0.000  0.000  0.000  0.017  0.024
    8  0.000  0.001  0.000  0.000  0.006  0.000  0.000  0.000  0.017  0.024
    9  0.000  0.001  0.000  0.000  0.006  0.000  0.000  0.000  0.017  0.024
   10  0.000  0.001  0.000  0.000  0.006  0.000  0.000  0.000  0.017  0.024
   11  0.000  0.001  0.000  0.000  0.006  0.000  0.000  0.000  0.017  0.024
   12  0.000  0.001  0.000  0.000  0.006  0.000  0.000  0.000  0.017  0.024
   13  0.000  0.016  0.000  0.005  0.000  0.000  0.000  0.000  0.000  0.021
   14  0.000  0.016  0.000  0.005  0.000  0.000  0.000  0.000  0.000  0.021
   15  0.000  0.016  0.000  0.005  0.000  0.000  0.000  0.000  0.000  0.021
   16  0.000  0.016  0.000  0.005  0.000  0.000  0.000  0.000  0.000  0.021
   17  0.000  0.016  0.000  0.005  0.000  0.000  0.000  0.000  0.000  0.021
   18  0.000  0.016  0.000  0.005  0.000  0.000  0.000  0.000  0.000  0.021
   19  0.000  0.016  0.000  0.005  0.000  0.000  0.000  0.000  0.000  0.021
   20  0.000  0.016  0.000  0.005  0.000  0.000  0.000  0.000  0.000  0.021
   21  0.000  0.016  0.000  0.005  0.000  0.000  0.000  0.000  0.000  0.021
   22  0.000  0.016  0.000  0.005  0.000  0.000  0.000  0.000  0.000  0.021
   23  0.000  0.016  0.000  0.005  0.000  0.000  0.000  0.000  0.000  0.021
   24  0.000  0.016  0.000  0.005  0.000  0.000  0.000  0.000  0.000  0.021
   25  0.000  0.016  0.000  0.005  0.000  0.000  0.000  0.000  0.000  0.021
   26  0.000  0.016  0.000  0.005  0.000  0.000  0.000  0.000  0.000  0.021
   27  0.000  0.016  0.000  0.005  0.000  0.000  0.000  0.000  0.000  0.021
   28  0.000  0.016  0.000  0.005  0.000  0.000  0.000  0.000  0.000  0.021
   29  0.000  0.016  0.000  0.005  0.000  0.000  0.000  0.000  0.000  0.021
   30  0.000  0.016  0.000  0.005  0.000  0.000  0.000  0.000  0.000  0.021
   31  0.000  0.016  0.000  0.005  0.000  0.000  0.000  0.000  0.000  0.021
   32  0.000  0.016  0.000  0.005  0.000  0.000  0.000  0.000  0.000  0.021
   33  0.000  0.016  0.000  0.005  0.000  0.000  0.000  0.000  0.000  0.021
   34  0.000  0.016  0.000  0.005  0.000  0.000  0.000  0.000  0.000  0.021
   35  0.000  0.016  0.000  0.005  0.000  0.000  0.000  0.000  0.000  0.021
   36  0.000  0.016  0.000  0.005  0.000  0.000  0.000  0.000  0.000  0.021
tot    0.000  0.393  0.000  0.131  0.069  0.004  0.000  0.001  0.206  0.804
 
band   140 # energy    1.93493323 # occ.  0.00000000
 
ion      s     py     pz     px    dxy    dyz    dz2    dxz  x2-y2    tot
    1  0.000  0.000  0.000  0.000  0.000  0.003  0.000  0.002  0.000  0.005
    2  0.000  0.000  0.001  0.000  0.000  0.057  0.000  0.048  0.000  0.107
    3  0.000  0.000  0.000  0.000  0.000  0.004  0.000  0.001  0.000  0.005
    4  0.000  0.000  0.000  0.000  0.000  0.000  0.000  0.000  0.000  0.001
    5  0.000  0.000  0.001  0.000  0.000  0.057  0.000  0.048  0.000  0.107
    6  0.000  0.000  0.001  0.000  0.000  0.096  0.000  0.009  0.000  0.107
    7  0.000  0.000  0.004  0.000  0.000  0.005  0.000  0.015  0.000  0.024
    8  0.000  0.000  0.001  0.000  0.000  0.096  0.000  0.009  0.000  0.107
    9  0.000  0.000  0.004  0.000  0.000  0.005  0.000  0.015  0.000  0.024
   10  0.000  0.000  0.000  0.000  0.000  0.004  0.000  0.001  0.000  0.005
   11  0.000  0.000  0.000  0.000  0.000  0.000  0.000  0.000  0.000  0.001
   12  0.000  0.000  0.000  0.000  0.000  0.003  0.000  0.002  0.000  0.005
   13  0.006  0.003  0.015  0.008  0.000  0.000  0.000  0.001  0.000  0.034
   14  0.001  0.001  0.004  0.002  0.000  0.001  0.000  0.000  0.001  0.009
   15  0.001  0.001  0.004  0.002  0.000  0.001  0.000  0.000  0.001  0.009
   16  0.000  0.000  0.000  0.001  0.001  0.000  0.000  0.000  0.000  0.002
   17  0.000  0.000  0.000  0.001  0.001  0.000  0.000  0.000  0.000  0.002
   18  0.001  0.001  0.004  0.002  0.000  0.000  0.000  0.001  0.000  0.009
   19  0.001  0.001  0.004  0.002  0.000  0.000  0.000  0.001  0.000  0.009
   20  0.006  0.003  0.015  0.008  0.000  0.000  0.000  0.001  0.000  0.034
   21  0.001  0.001  0.004  0.002  0.000  0.001  0.000  0.000  0.001  0.009
   22  0.001  0.001  0.004  0.002  0.000  0.001  0.000  0.000  0.001  0.009
   23  0.001  0.000  0.000  0.001  0.000  0.000  0.000  0.001  0.000  0.004
   24  0.001  0.000  0.000  0.001  0.000  0.000  0.000  0.001  0.000  0.004
   25  0.000  0.001  0.000  0.000  0.000  0.000  0.000  0.000  0.001  0.002
   26  0.000  0.001  0.000  0.000  0.000  0.000  0.000  0.000  0.001  0.002
   27  0.006  0.003  0.015  0.008  0.000  0.000  0.000  0.001  0.000  0.034
   28  0.006  0.003  0.015  0.008  0.000  0.000  0.000  0.001  0.000  0.034
   29  0.000  0.000  0.000  0.001  0.001  0.000  0.000  0.000  0.000  0.002
   30  0.001  0.001  0.004  0.002  0.000  0.000  0.000  0.001  0.000  0.009
   31  0.001  0.001  0.004  0.002  0.000  0.000  0.000  0.001  0.000  0.009
   32  0.000  0.000  0.000  0.001  0.001  0.000  0.000  0.000  0.000  0.002
   33  0.000  0.001  0.000  0.000  0.000  0.000  0.000  0.000  0.001  0.002
   34  0.000  0.001  0.000  0.000  0.000  0.000  0.000  0.000  0.001  0.002
   35  0.001  0.000  0.000  0.001  0.000  0.000  0.000  0.001  0.000  0.004
   36  0.001  0.000  0.000  0.001  0.000  0.000  0.000  0.001  0.000  0.004
tot    0.039  0.021  0.104  0.058  0.005  0.338  0.001  0.162  0.009  0.736
 
band   141 # energy    1.93528943 # occ.  0.00000000
 
ion      s     py     pz     px    dxy    dyz    dz2    dxz  x2-y2    tot
    1  0.000  0.000  0.000  0.000  0.000  0.002  0.000  0.000  0.000  0.002
    2  0.000  0.000  0.003  0.000  0.000  0.048  0.000  0.000  0.000  0.051
    3  0.000  0.000  0.000  0.000  0.000  0.001  0.000  0.001  0.000  0.002
    4  0.000  0.000  0.000  0.000  0.000  0.005  0.000  0.002  0.000  0.006
    5  0.000  0.000  0.003  0.000  0.000  0.048  0.000  0.000  0.000  0.051
    6  0.000  0.000  0.003  0.000  0.000  0.009  0.000  0.039  0.000  0.051
    7  0.000  0.000  0.000  0.000  0.000  0.100  0.000  0.034  0.000  0.134
    8  0.000  0.000  0.003  0.000  0.000  0.009  0.000  0.039  0.000  0.051
    9  0.000  0.000  0.000  0.000  0.000  0.100  0.000  0.034  0.000  0.134
   10  0.000  0.000  0.000  0.000  0.000  0.001  0.000  0.001  0.000  0.002
   11  0.000  0.000  0.000  0.000  0.000  0.005  0.000  0.002  0.000  0.006
   12  0.000  0.000  0.000  0.000  0.000  0.002  0.000  0.000  0.000  0.002
   13  0.000  0.000  0.000  0.000  0.000  0.000  0.000  0.000  0.001  0.001
   14  0.004  0.002  0.011  0.006  0.000  0.000  0.000  0.001  0.000  0.026
   15  0.004  0.002  0.011  0.006  0.000  0.000  0.000  0.001  0.000  0.026
   16  0.001  0.001  0.000  0.001  0.000  0.000  0.000  0.001  0.001  0.003
   17  0.001  0.001  0.000  0.001  0.000  0.000  0.000  0.001  0.001  0.003
   18  0.004  0.002  0.011  0.006  0.000  0.001  0.000  0.000  0.000  0.026
   19  0.004  0.002  0.011  0.006  0.000  0.001  0.000  0.000  0.000  0.026
   20  0.000  0.000  0.000  0.000  0.000  0.000  0.000  0.000  0.001  0.001
   21  0.004  0.002  0.011  0.006  0.000  0.000  0.000  0.001  0.000  0.026
   22  0.004  0.002  0.011  0.006  0.000  0.000  0.000  0.001  0.000  0.026
   23  0.000  0.000  0.000  0.000  0.000  0.000  0.000  0.000  0.001  0.002
   24  0.000  0.000  0.000  0.000  0.000  0.000  0.000  0.000  0.001  0.002
   25  0.001  0.000  0.000  0.001  0.001  0.000  0.000  0.000  0.000  0.003
   26  0.001  0.000  0.000  0.001  0.001  0.000  0.000  0.000  0.000  0.003
   27  0.000  0.000  0.000  0.000  0.000  0.000  0.000  0.000  0.001  0.001
   28  0.000  0.000  0.000  0.000  0.000  0.000  0.000  0.000  0.001  0.001
   29  0.001  0.001  0.000  0.001  0.000  0.000  0.000  0.001  0.001  0.003
   30  0.004  0.002  0.011  0.006  0.000  0.001  0.000  0.000  0.000  0.026
   31  0.004  0.002  0.011  0.006  0.000  0.001  0.000  0.000  0.000  0.026
   32  0.001  0.001  0.000  0.001  0.000  0.000  0.000  0.001  0.001  0.003
   33  0.001  0.000  0.000  0.001  0.001  0.000  0.000  0.000  0.000  0.003
   34  0.001  0.000  0.000  0.001  0.001  0.000  0.000  0.000  0.000  0.003
   35  0.000  0.000  0.000  0.000  0.000  0.000  0.000  0.000  0.001  0.002
   36  0.000  0.000  0.000  0.000  0.000  0.000  0.000  0.000  0.001  0.002
tot    0.039  0.021  0.104  0.058  0.005  0.338  0.001  0.162  0.009  0.736
 
band   142 # energy    1.93563014 # occ.  0.00000000
 
ion      s     py     pz     px    dxy    dyz    dz2    dxz  x2-y2    tot
    1  0.000  0.000  0.001  0.000  0.000  0.096  0.000  0.010  0.000  0.107
    2  0.000  0.000  0.000  0.000  0.000  0.004  0.000  0.001  0.000  0.005
    3  0.000  0.000  0.001  0.000  0.000  0.057  0.000  0.048  0.000  0.106
    4  0.000  0.000  0.004  0.000  0.000  0.005  0.000  0.015  0.000  0.024
    5  0.000  0.000  0.000  0.000  0.000  0.004  0.000  0.001  0.000  0.005
    6  0.000  0.000  0.000  0.000  0.000  0.003  0.000  0.002  0.000  0.005
    7  0.000  0.000  0.000  0.000  0.000  0.000  0.000  0.000  0.000  0.001
    8  0.000  0.000  0.000  0.000  0.000  0.003  0.000  0.002  0.000  0.005
    9  0.000  0.000  0.000  0.000  0.000  0.000  0.000  0.000  0.000  0.001
   10  0.000  0.000  0.001  0.000  0.000  0.057  0.000  0.048  0.000  0.106
   11  0.000  0.000  0.004  0.000  0.000  0.005  0.000  0.015  0.000  0.024
   12  0.000  0.000  0.001  0.000  0.000  0.096  0.000  0.010  0.000  0.107
   13  0.001  0.000  0.000  0.001  0.000  0.000  0.000  0.001  0.000  0.004
   14  0.000  0.001  0.000  0.000  0.000  0.000  0.000  0.000  0.001  0.002
   15  0.000  0.001  0.000  0.000  0.000  0.000  0.000  0.000  0.001  0.002
   16  0.001  0.001  0.004  0.002  0.000  0.000  0.000  0.001  0.000  0.009
   17  0.001  0.001  0.004  0.002  0.000  0.000  0.000  0.001  0.000  0.009
   18  0.000  0.000  0.000  0.001  0.001  0.000  0.000  0.000  0.000  0.002
   19  0.000  0.000  0.000  0.001  0.001  0.000  0.000  0.000  0.000  0.002
   20  0.001  0.000  0.000  0.001  0.000  0.000  0.000  0.001  0.000  0.004
   21  0.000  0.001  0.000  0.000  0.000  0.000  0.000  0.000  0.001  0.002
   22  0.000  0.001  0.000  0.000  0.000  0.000  0.000  0.000  0.001  0.002
   23  0.006  0.003  0.015  0.008  0.000  0.000  0.000  0.001  0.000  0.034
   24  0.006  0.003  0.015  0.008  0.000  0.000  0.000  0.001  0.000  0.034
   25  0.001  0.001  0.004  0.002  0.000  0.001  0.000  0.000  0.001  0.009
   26  0.001  0.001  0.004  0.002  0.000  0.001  0.000  0.000  0.001  0.009
   27  0.001  0.000  0.000  0.001  0.000  0.000  0.000  0.001  0.000  0.004
   28  0.001  0.000  0.000  0.001  0.000  0.000  0.000  0.001  0.000  0.004
   29  0.001  0.001  0.004  0.002  0.000  0.000  0.000  0.001  0.000  0.009
   30  0.000  0.000  0.000  0.001  0.001  0.000  0.000  0.000  0.000  0.002
   31  0.000  0.000  0.000  0.001  0.001  0.000  0.000  0.000  0.000  0.002
   32  0.001  0.001  0.004  0.002  0.000  0.000  0.000  0.001  0.000  0.009
   33  0.001  0.001  0.004  0.002  0.000  0.001  0.000  0.000  0.001  0.009
   34  0.001  0.001  0.004  0.002  0.000  0.001  0.000  0.000  0.001  0.009
   35  0.006  0.003  0.015  0.008  0.000  0.000  0.000  0.001  0.000  0.034
   36  0.006  0.003  0.015  0.008  0.000  0.000  0.000  0.001  0.000  0.034
tot    0.039  0.021  0.104  0.058  0.005  0.338  0.001  0.162  0.009  0.736
 
band   143 # energy    1.93598740 # occ.  0.00000000
 
ion      s     py     pz     px    dxy    dyz    dz2    dxz  x2-y2    tot
    1  0.000  0.000  0.003  0.000  0.000  0.009  0.000  0.039  0.000  0.051
    2  0.000  0.000  0.000  0.000  0.000  0.001  0.000  0.001  0.000  0.002
    3  0.000  0.000  0.003  0.000  0.000  0.048  0.000  0.000  0.000  0.051
    4  0.000  0.000  0.000  0.000  0.000  0.100  0.000  0.034  0.000  0.134
    5  0.000  0.000  0.000  0.000  0.000  0.001  0.000  0.001  0.000  0.002
    6  0.000  0.000  0.000  0.000  0.000  0.002  0.000  0.000  0.000  0.002
    7  0.000  0.000  0.000  0.000  0.000  0.005  0.000  0.002  0.000  0.007
    8  0.000  0.000  0.000  0.000  0.000  0.002  0.000  0.000  0.000  0.002
    9  0.000  0.000  0.000  0.000  0.000  0.005  0.000  0.002  0.000  0.007
   10  0.000  0.000  0.003  0.000  0.000  0.048  0.000  0.000  0.000  0.051
   11  0.000  0.000  0.000  0.000  0.000  0.100  0.000  0.034  0.000  0.134
   12  0.000  0.000  0.003  0.000  0.000  0.009  0.000  0.039  0.000  0.051
   13  0.000  0.000  0.000  0.000  0.000  0.000  0.000  0.000  0.001  0.002
   14  0.001  0.000  0.000  0.001  0.001  0.000  0.000  0.000  0.000  0.003
   15  0.001  0.000  0.000  0.001  0.001  0.000  0.000  0.000  0.000  0.003
   16  0.004  0.002  0.011  0.006  0.000  0.001  0.000  0.000  0.000  0.026
   17  0.004  0.002  0.011  0.006  0.000  0.001  0.000  0.000  0.000  0.026
   18  0.001  0.001  0.000  0.001  0.000  0.000  0.000  0.001  0.001  0.003
   19  0.001  0.001  0.000  0.001  0.000  0.000  0.000  0.001  0.001  0.003
   20  0.000  0.000  0.000  0.000  0.000  0.000  0.000  0.000  0.001  0.002
   21  0.001  0.000  0.000  0.001  0.001  0.000  0.000  0.000  0.000  0.003
   22  0.001  0.000  0.000  0.001  0.001  0.000  0.000  0.000  0.000  0.003
   23  0.000  0.000  0.000  0.000  0.000  0.000  0.000  0.000  0.001  0.001
   24  0.000  0.000  0.000  0.000  0.000  0.000  0.000  0.000  0.001  0.001
   25  0.004  0.002  0.011  0.006  0.000  0.000  0.000  0.001  0.000  0.026
   26  0.004  0.002  0.011  0.006  0.000  0.000  0.000  0.001  0.000  0.026
   27  0.000  0.000  0.000  0.000  0.000  0.000  0.000  0.000  0.001  0.002
   28  0.000  0.000  0.000  0.000  0.000  0.000  0.000  0.000  0.001  0.002
   29  0.004  0.002  0.011  0.006  0.000  0.001  0.000  0.000  0.000  0.026
   30  0.001  0.001  0.000  0.001  0.000  0.000  0.000  0.001  0.001  0.003
   31  0.001  0.001  0.000  0.001  0.000  0.000  0.000  0.001  0.001  0.003
   32  0.004  0.002  0.011  0.006  0.000  0.001  0.000  0.000  0.000  0.026
   33  0.004  0.002  0.011  0.006  0.000  0.000  0.000  0.001  0.000  0.026
   34  0.004  0.002  0.011  0.006  0.000  0.000  0.000  0.001  0.000  0.026
   35  0.000  0.000  0.000  0.000  0.000  0.000  0.000  0.000  0.001  0.001
   36  0.000  0.000  0.000  0.000  0.000  0.000  0.000  0.000  0.001  0.001
tot    0.039  0.021  0.104  0.058  0.005  0.338  0.001  0.162  0.009  0.736
 
band   144 # energy    1.95028540 # occ.  0.00000000
 
ion      s     py     pz     px    dxy    dyz    dz2    dxz  x2-y2    tot
    1  0.000  0.000  0.000  0.001  0.017  0.000  0.000  0.000  0.006  0.024
    2  0.000  0.000  0.000  0.001  0.017  0.000  0.000  0.000  0.006  0.024
    3  0.000  0.000  0.000  0.001  0.017  0.000  0.000  0.000  0.006  0.024
    4  0.000  0.000  0.000  0.001  0.017  0.000  0.000  0.000  0.006  0.024
    5  0.000  0.000  0.000  0.001  0.017  0.000  0.000  0.000  0.006  0.024
    6  0.000  0.000  0.000  0.001  0.017  0.000  0.000  0.000  0.006  0.024
    7  0.000  0.000  0.000  0.001  0.017  0.000  0.000  0.000  0.006  0.024
    8  0.000  0.000  0.000  0.001  0.017  0.000  0.000  0.000  0.006  0.024
    9  0.000  0.000  0.000  0.001  0.017  0.000  0.000  0.000  0.006  0.024
   10  0.000  0.000  0.000  0.001  0.017  0.000  0.000  0.000  0.006  0.024
   11  0.000  0.000  0.000  0.001  0.017  0.000  0.000  0.000  0.006  0.024
   12  0.000  0.000  0.000  0.001  0.017  0.000  0.000  0.000  0.006  0.024
   13  0.000  0.005  0.000  0.016  0.000  0.000  0.000  0.000  0.000  0.021
   14  0.000  0.005  0.000  0.016  0.000  0.000  0.000  0.000  0.000  0.021
   15  0.000  0.005  0.000  0.016  0.000  0.000  0.000  0.000  0.000  0.021
   16  0.000  0.005  0.000  0.016  0.000  0.000  0.000  0.000  0.000  0.021
   17  0.000  0.005  0.000  0.016  0.000  0.000  0.000  0.000  0.000  0.021
   18  0.000  0.005  0.000  0.016  0.000  0.000  0.000  0.000  0.000  0.021
   19  0.000  0.005  0.000  0.016  0.000  0.000  0.000  0.000  0.000  0.021
   20  0.000  0.005  0.000  0.016  0.000  0.000  0.000  0.000  0.000  0.021
   21  0.000  0.005  0.000  0.016  0.000  0.000  0.000  0.000  0.000  0.021
   22  0.000  0.005  0.000  0.016  0.000  0.000  0.000  0.000  0.000  0.021
   23  0.000  0.005  0.000  0.016  0.000  0.000  0.000  0.000  0.000  0.021
   24  0.000  0.005  0.000  0.016  0.000  0.000  0.000  0.000  0.000  0.021
   25  0.000  0.005  0.000  0.016  0.000  0.000  0.000  0.000  0.000  0.021
   26  0.000  0.005  0.000  0.016  0.000  0.000  0.000  0.000  0.000  0.021
   27  0.000  0.005  0.000  0.016  0.000  0.000  0.000  0.000  0.000  0.021
   28  0.000  0.005  0.000  0.016  0.000  0.000  0.000  0.000  0.000  0.021
   29  0.000  0.005  0.000  0.016  0.000  0.000  0.000  0.000  0.000  0.021
   30  0.000  0.005  0.000  0.016  0.000  0.000  0.000  0.000  0.000  0.021
   31  0.000  0.005  0.000  0.016  0.000  0.000  0.000  0.000  0.000  0.021
   32  0.000  0.005  0.000  0.016  0.000  0.000  0.000  0.000  0.000  0.021
   33  0.000  0.005  0.000  0.016  0.000  0.000  0.000  0.000  0.000  0.021
   34  0.000  0.005  0.000  0.016  0.000  0.000  0.000  0.000  0.000  0.021
   35  0.000  0.005  0.000  0.016  0.000  0.000  0.000  0.000  0.000  0.021
   36  0.000  0.005  0.000  0.016  0.000  0.000  0.000  0.000  0.000  0.021
tot    0.000  0.131  0.000  0.393  0.207  0.001  0.000  0.004  0.069  0.804
 
band   145 # energy    2.37285016 # occ.  0.00000000
 
ion      s     py     pz     px    dxy    dyz    dz2    dxz  x2-y2    tot
    1  0.000  0.000  0.000  0.000  0.000  0.009  0.000  0.026  0.000  0.035
    2  0.000  0.000  0.000  0.000  0.000  0.009  0.000  0.026  0.000  0.035
    3  0.000  0.000  0.000  0.000  0.000  0.009  0.000  0.026  0.000  0.035
    4  0.000  0.000  0.000  0.000  0.000  0.009  0.000  0.026  0.000  0.035
    5  0.000  0.000  0.000  0.000  0.000  0.009  0.000  0.026  0.000  0.035
    6  0.000  0.000  0.000  0.000  0.000  0.009  0.000  0.026  0.000  0.035
    7  0.000  0.000  0.000  0.000  0.000  0.009  0.000  0.026  0.000  0.035
    8  0.000  0.000  0.000  0.000  0.000  0.009  0.000  0.026  0.000  0.035
    9  0.000  0.000  0.000  0.000  0.000  0.009  0.000  0.026  0.000  0.035
   10  0.000  0.000  0.000  0.000  0.000  0.009  0.000  0.026  0.000  0.035
   11  0.000  0.000  0.000  0.000  0.000  0.009  0.000  0.026  0.000  0.035
   12  0.000  0.000  0.000  0.000  0.000  0.009  0.000  0.026  0.000  0.035
   13  0.002  0.000  0.007  0.001  0.000  0.000  0.000  0.001  0.000  0.011
   14  0.002  0.000  0.007  0.001  0.000  0.000  0.000  0.001  0.000  0.011
   15  0.002  0.000  0.007  0.001  0.000  0.000  0.000  0.001  0.000  0.011
   16  0.002  0.000  0.007  0.001  0.000  0.000  0.000  0.001  0.000  0.011
   17  0.002  0.000  0.007  0.001  0.000  0.000  0.000  0.001  0.000  0.011
   18  0.002  0.000  0.007  0.001  0.000  0.000  0.000  0.001  0.000  0.011
   19  0.002  0.000  0.007  0.001  0.000  0.000  0.000  0.001  0.000  0.011
   20  0.002  0.000  0.007  0.001  0.000  0.000  0.000  0.001  0.000  0.011
   21  0.002  0.000  0.007  0.001  0.000  0.000  0.000  0.001  0.000  0.011
   22  0.002  0.000  0.007  0.001  0.000  0.000  0.000  0.001  0.000  0.011
   23  0.002  0.000  0.007  0.001  0.000  0.000  0.000  0.001  0.000  0.011
   24  0.002  0.000  0.007  0.001  0.000  0.000  0.000  0.001  0.000  0.011
   25  0.002  0.000  0.007  0.001  0.000  0.000  0.000  0.001  0.000  0.011
   26  0.002  0.000  0.007  0.001  0.000  0.000  0.000  0.001  0.000  0.011
   27  0.002  0.000  0.007  0.001  0.000  0.000  0.000  0.001  0.000  0.011
   28  0.002  0.000  0.007  0.001  0.000  0.000  0.000  0.001  0.000  0.011
   29  0.002  0.000  0.007  0.001  0.000  0.000  0.000  0.001  0.000  0.011
   30  0.002  0.000  0.007  0.001  0.000  0.000  0.000  0.001  0.000  0.011
   31  0.002  0.000  0.007  0.001  0.000  0.000  0.000  0.001  0.000  0.011
   32  0.002  0.000  0.007  0.001  0.000  0.000  0.000  0.001  0.000  0.011
   33  0.002  0.000  0.007  0.001  0.000  0.000  0.000  0.001  0.000  0.011
   34  0.002  0.000  0.007  0.001  0.000  0.000  0.000  0.001  0.000  0.011
   35  0.002  0.000  0.007  0.001  0.000  0.000  0.000  0.001  0.000  0.011
   36  0.002  0.000  0.007  0.001  0.000  0.000  0.000  0.001  0.000  0.011
tot    0.048  0.004  0.173  0.012  0.009  0.109  0.000  0.328  0.003  0.686
 
band   146 # energy    2.48962829 # occ.  0.00000000
 
ion      s     py     pz     px    dxy    dyz    dz2    dxz  x2-y2    tot
    1  0.000  0.000  0.000  0.000  0.000  0.004  0.000  0.001  0.000  0.005
    2  0.000  0.000  0.000  0.000  0.000  0.049  0.000  0.016  0.000  0.065
    3  0.000  0.000  0.000  0.000  0.000  0.004  0.000  0.001  0.000  0.005
    4  0.000  0.000  0.000  0.000  0.000  0.004  0.000  0.001  0.000  0.005
    5  0.000  0.000  0.000  0.000  0.000  0.049  0.000  0.016  0.000  0.065
    6  0.000  0.000  0.000  0.000  0.000  0.049  0.000  0.016  0.000  0.065
    7  0.000  0.000  0.000  0.000  0.000  0.049  0.000  0.016  0.000  0.065
    8  0.000  0.000  0.000  0.000  0.000  0.049  0.000  0.016  0.000  0.065
    9  0.000  0.000  0.000  0.000  0.000  0.049  0.000  0.016  0.000  0.065
   10  0.000  0.000  0.000  0.000  0.000  0.004  0.000  0.001  0.000  0.005
   11  0.000  0.000  0.000  0.000  0.000  0.004  0.000  0.001  0.000  0.005
   12  0.000  0.000  0.000  0.000  0.000  0.004  0.000  0.001  0.000  0.005
   13  0.000  0.024  0.000  0.008  0.000  0.001  0.000  0.000  0.000  0.033
   14  0.000  0.024  0.000  0.008  0.000  0.001  0.000  0.000  0.000  0.033
   15  0.000  0.024  0.000  0.008  0.000  0.001  0.000  0.000  0.000  0.033
   16  0.000  0.000  0.000  0.000  0.000  0.000  0.000  0.000  0.000  0.000
   17  0.000  0.000  0.000  0.000  0.000  0.000  0.000  0.000  0.000  0.000
   18  0.000  0.024  0.000  0.008  0.000  0.001  0.000  0.000  0.000  0.033
   19  0.000  0.024  0.000  0.008  0.000  0.001  0.000  0.000  0.000  0.033
   20  0.000  0.024  0.000  0.008  0.000  0.001  0.000  0.000  0.000  0.033
   21  0.000  0.024  0.000  0.008  0.000  0.001  0.000  0.000  0.000  0.033
   22  0.000  0.024  0.000  0.008  0.000  0.001  0.000  0.000  0.000  0.033
   23  0.000  0.000  0.000  0.000  0.000  0.000  0.000  0.000  0.000  0.000
   24  0.000  0.000  0.000  0.000  0.000  0.000  0.000  0.000  0.000  0.000
   25  0.000  0.000  0.000  0.000  0.000  0.000  0.000  0.000  0.000  0.000
   26  0.000  0.000  0.000  0.000  0.000  0.000  0.000  0.000  0.000  0.000
   27  0.000  0.024  0.000  0.008  0.000  0.001  0.000  0.000  0.000  0.033
   28  0.000  0.024  0.000  0.008  0.000  0.001  0.000  0.000  0.000  0.033
   29  0.000  0.000  0.000  0.000  0.000  0.000  0.000  0.000  0.000  0.000
   30  0.000  0.024  0.000  0.008  0.000  0.001  0.000  0.000  0.000  0.033
   31  0.000  0.024  0.000  0.008  0.000  0.001  0.000  0.000  0.000  0.033
   32  0.000  0.000  0.000  0.000  0.000  0.000  0.000  0.000  0.000  0.000
   33  0.000  0.000  0.000  0.000  0.000  0.000  0.000  0.000  0.000  0.000
   34  0.000  0.000  0.000  0.000  0.000  0.000  0.000  0.000  0.000  0.000
   35  0.000  0.000  0.000  0.000  0.000  0.000  0.000  0.000  0.000  0.000
   36  0.000  0.000  0.000  0.000  0.000  0.000  0.000  0.000  0.000  0.000
tot    0.000  0.284  0.000  0.095  0.002  0.322  0.000  0.107  0.006  0.816
 
band   147 # energy    2.49031428 # occ.  0.00000000
 
ion      s     py     pz     px    dxy    dyz    dz2    dxz  x2-y2    tot
    1  0.000  0.000  0.000  0.000  0.000  0.049  0.000  0.016  0.000  0.065
    2  0.000  0.000  0.000  0.000  0.000  0.004  0.000  0.001  0.000  0.005
    3  0.000  0.000  0.000  0.000  0.000  0.049  0.000  0.016  0.000  0.065
    4  0.000  0.000  0.000  0.000  0.000  0.049  0.000  0.016  0.000  0.065
    5  0.000  0.000  0.000  0.000  0.000  0.004  0.000  0.001  0.000  0.005
    6  0.000  0.000  0.000  0.000  0.000  0.004  0.000  0.001  0.000  0.005
    7  0.000  0.000  0.000  0.000  0.000  0.004  0.000  0.001  0.000  0.005
    8  0.000  0.000  0.000  0.000  0.000  0.004  0.000  0.001  0.000  0.005
    9  0.000  0.000  0.000  0.000  0.000  0.004  0.000  0.001  0.000  0.005
   10  0.000  0.000  0.000  0.000  0.000  0.049  0.000  0.016  0.000  0.065
   11  0.000  0.000  0.000  0.000  0.000  0.049  0.000  0.016  0.000  0.065
   12  0.000  0.000  0.000  0.000  0.000  0.049  0.000  0.016  0.000  0.065
   13  0.000  0.000  0.000  0.000  0.000  0.000  0.000  0.000  0.000  0.000
   14  0.000  0.000  0.000  0.000  0.000  0.000  0.000  0.000  0.000  0.000
   15  0.000  0.000  0.000  0.000  0.000  0.000  0.000  0.000  0.000  0.000
   16  0.000  0.024  0.000  0.008  0.000  0.001  0.000  0.000  0.000  0.033
   17  0.000  0.024  0.000  0.008  0.000  0.001  0.000  0.000  0.000  0.033
   18  0.000  0.000  0.000  0.000  0.000  0.000  0.000  0.000  0.000  0.000
   19  0.000  0.000  0.000  0.000  0.000  0.000  0.000  0.000  0.000  0.000
   20  0.000  0.000  0.000  0.000  0.000  0.000  0.000  0.000  0.000  0.000
   21  0.000  0.000  0.000  0.000  0.000  0.000  0.000  0.000  0.000  0.000
   22  0.000  0.000  0.000  0.000  0.000  0.000  0.000  0.000  0.000  0.000
   23  0.000  0.024  0.000  0.008  0.000  0.001  0.000  0.000  0.000  0.033
   24  0.000  0.024  0.000  0.008  0.000  0.001  0.000  0.000  0.000  0.033
   25  0.000  0.024  0.000  0.008  0.000  0.001  0.000  0.000  0.000  0.033
   26  0.000  0.024  0.000  0.008  0.000  0.001  0.000  0.000  0.000  0.033
   27  0.000  0.000  0.000  0.000  0.000  0.000  0.000  0.000  0.000  0.000
   28  0.000  0.000  0.000  0.000  0.000  0.000  0.000  0.000  0.000  0.000
   29  0.000  0.024  0.000  0.008  0.000  0.001  0.000  0.000  0.000  0.033
   30  0.000  0.000  0.000  0.000  0.000  0.000  0.000  0.000  0.000  0.000
   31  0.000  0.000  0.000  0.000  0.000  0.000  0.000  0.000  0.000  0.000
   32  0.000  0.024  0.000  0.008  0.000  0.001  0.000  0.000  0.000  0.033
   33  0.000  0.024  0.000  0.008  0.000  0.001  0.000  0.000  0.000  0.033
   34  0.000  0.024  0.000  0.008  0.000  0.001  0.000  0.000  0.000  0.033
   35  0.000  0.024  0.000  0.008  0.000  0.001  0.000  0.000  0.000  0.033
   36  0.000  0.024  0.000  0.008  0.000  0.001  0.000  0.000  0.000  0.033
tot    0.000  0.284  0.000  0.095  0.002  0.322  0.000  0.107  0.006  0.816
 
band   148 # energy    2.68523841 # occ.  0.00000000
 
ion      s     py     pz     px    dxy    dyz    dz2    dxz  x2-y2    tot
    1  0.000  0.000  0.000  0.000  0.000  0.045  0.000  0.002  0.000  0.048
    2  0.000  0.000  0.000  0.000  0.000  0.032  0.000  0.025  0.000  0.057
    3  0.000  0.000  0.000  0.000  0.000  0.032  0.000  0.025  0.000  0.057
    4  0.000  0.000  0.000  0.000  0.000  0.001  0.000  0.013  0.000  0.014
    5  0.000  0.000  0.000  0.000  0.000  0.032  0.000  0.025  0.000  0.057
    6  0.000  0.000  0.000  0.000  0.000  0.045  0.000  0.002  0.000  0.048
    7  0.000  0.000  0.000  0.000  0.000  0.001  0.000  0.013  0.000  0.014
    8  0.000  0.000  0.000  0.000  0.000  0.046  0.000  0.002  0.000  0.048
    9  0.000  0.000  0.000  0.000  0.000  0.001  0.000  0.013  0.000  0.014
   10  0.000  0.000  0.000  0.000  0.000  0.032  0.000  0.025  0.000  0.057
   11  0.000  0.000  0.000  0.000  0.000  0.001  0.000  0.012  0.000  0.014
   12  0.000  0.000  0.000  0.000  0.000  0.045  0.000  0.002  0.000  0.048
   13  0.001  0.006  0.003  0.016  0.000  0.000  0.000  0.001  0.000  0.026
   14  0.000  0.001  0.001  0.007  0.000  0.000  0.000  0.000  0.000  0.009
   15  0.000  0.001  0.001  0.007  0.000  0.000  0.000  0.000  0.000  0.009
   16  0.000  0.002  0.001  0.002  0.000  0.000  0.000  0.000  0.000  0.005
   17  0.000  0.002  0.001  0.002  0.000  0.000  0.000  0.000  0.000  0.005
   18  0.000  0.002  0.001  0.002  0.000  0.000  0.000  0.000  0.000  0.005
   19  0.000  0.002  0.001  0.002  0.000  0.000  0.000  0.000  0.000  0.005
   20  0.001  0.006  0.003  0.016  0.000  0.000  0.000  0.001  0.000  0.026
   21  0.000  0.001  0.001  0.007  0.000  0.000  0.000  0.000  0.000  0.009
   22  0.000  0.001  0.001  0.007  0.000  0.000  0.000  0.000  0.000  0.009
   23  0.001  0.006  0.003  0.016  0.000  0.000  0.000  0.001  0.000  0.026
   24  0.001  0.006  0.003  0.016  0.000  0.000  0.000  0.001  0.000  0.026
   25  0.000  0.001  0.001  0.007  0.000  0.000  0.000  0.000  0.000  0.009
   26  0.000  0.001  0.001  0.007  0.000  0.000  0.000  0.000  0.000  0.009
   27  0.001  0.006  0.003  0.016  0.000  0.000  0.000  0.001  0.000  0.026
   28  0.001  0.006  0.003  0.016  0.000  0.000  0.000  0.001  0.000  0.026
   29  0.000  0.002  0.001  0.002  0.000  0.000  0.000  0.000  0.000  0.005
   30  0.000  0.002  0.001  0.002  0.000  0.000  0.000  0.000  0.000  0.005
   31  0.000  0.002  0.001  0.002  0.000  0.000  0.000  0.000  0.000  0.005
   32  0.000  0.002  0.001  0.002  0.000  0.000  0.000  0.000  0.000  0.005
   33  0.000  0.001  0.001  0.007  0.000  0.000  0.000  0.000  0.000  0.009
   34  0.000  0.001  0.001  0.007  0.000  0.000  0.000  0.000  0.000  0.009
   35  0.001  0.006  0.003  0.016  0.000  0.000  0.000  0.001  0.000  0.026
   36  0.001  0.006  0.003  0.016  0.000  0.000  0.000  0.001  0.000  0.026
tot    0.011  0.067  0.038  0.194  0.002  0.319  0.001  0.167  0.001  0.799
 
band   149 # energy    2.68689975 # occ.  0.00000000
 
ion      s     py     pz     px    dxy    dyz    dz2    dxz  x2-y2    tot
    1  0.000  0.000  0.000  0.000  0.000  0.006  0.000  0.012  0.000  0.018
    2  0.000  0.000  0.000  0.000  0.000  0.017  0.000  0.000  0.000  0.018
    3  0.000  0.000  0.000  0.000  0.000  0.030  0.000  0.004  0.000  0.035
    4  0.000  0.000  0.000  0.000  0.000  0.063  0.000  0.002  0.000  0.065
    5  0.000  0.000  0.000  0.000  0.000  0.021  0.000  0.006  0.000  0.028
    6  0.000  0.000  0.000  0.000  0.000  0.004  0.000  0.034  0.000  0.038
    7  0.000  0.000  0.000  0.000  0.000  0.044  0.000  0.011  0.000  0.054
    8  0.000  0.000  0.000  0.000  0.000  0.010  0.000  0.014  0.000  0.024
    9  0.000  0.000  0.000  0.000  0.000  0.053  0.000  0.015  0.000  0.069
   10  0.000  0.000  0.000  0.000  0.000  0.011  0.000  0.000  0.000  0.011
   11  0.000  0.000  0.000  0.000  0.000  0.036  0.000  0.033  0.000  0.069
   12  0.000  0.000  0.000  0.000  0.000  0.008  0.000  0.038  0.000  0.046
   13  0.000  0.000  0.000  0.001  0.000  0.000  0.000  0.000  0.000  0.002
   14  0.001  0.003  0.003  0.008  0.000  0.000  0.000  0.001  0.000  0.016
   15  0.001  0.003  0.003  0.008  0.000  0.000  0.000  0.001  0.000  0.016
   16  0.001  0.001  0.003  0.014  0.000  0.000  0.000  0.001  0.000  0.021
   17  0.001  0.001  0.003  0.014  0.000  0.000  0.000  0.001  0.000  0.021
   18  0.000  0.006  0.001  0.017  0.000  0.000  0.000  0.001  0.000  0.026
   19  0.000  0.006  0.001  0.017  0.000  0.000  0.000  0.001  0.000  0.026
   20  0.000  0.000  0.000  0.001  0.000  0.000  0.000  0.000  0.000  0.002
   21  0.000  0.006  0.001  0.010  0.000  0.000  0.000  0.001  0.000  0.018
   22  0.000  0.006  0.001  0.010  0.000  0.000  0.000  0.001  0.000  0.018
   23  0.000  0.000  0.000  0.001  0.000  0.000  0.000  0.000  0.000  0.001
   24  0.000  0.000  0.000  0.001  0.000  0.000  0.000  0.000  0.000  0.001
   25  0.001  0.001  0.003  0.008  0.000  0.000  0.000  0.001  0.000  0.014
   26  0.001  0.001  0.003  0.008  0.000  0.000  0.000  0.001  0.000  0.014
   27  0.000  0.001  0.001  0.000  0.000  0.000  0.000  0.000  0.000  0.002
   28  0.000  0.001  0.001  0.000  0.000  0.000  0.000  0.000  0.000  0.002
   29  0.000  0.007  0.002  0.013  0.000  0.001  0.000  0.000  0.000  0.023
   30  0.001  0.002  0.004  0.011  0.000  0.000  0.000  0.001  0.000  0.018
   31  0.001  0.002  0.004  0.011  0.000  0.000  0.000  0.001  0.000  0.018
   32  0.000  0.007  0.002  0.013  0.000  0.001  0.000  0.000  0.000  0.023
   33  0.000  0.009  0.001  0.010  0.000  0.000  0.000  0.000  0.000  0.022
   34  0.000  0.009  0.001  0.010  0.000  0.000  0.000  0.000  0.000  0.022
   35  0.000  0.000  0.000  0.000  0.000  0.000  0.000  0.000  0.000  0.001
   36  0.000  0.000  0.000  0.000  0.000  0.000  0.000  0.000  0.000  0.001
tot    0.011  0.074  0.039  0.185  0.002  0.308  0.001  0.178  0.001  0.798
 
band   150 # energy    2.71282769 # occ.  0.00000000
 
ion      s     py     pz     px    dxy    dyz    dz2    dxz  x2-y2    tot
    1  0.000  0.000  0.000  0.000  0.000  0.000  0.000  0.000  0.000  0.000
    2  0.000  0.000  0.000  0.000  0.000  0.044  0.000  0.044  0.000  0.089
    3  0.000  0.000  0.000  0.000  0.000  0.002  0.000  0.007  0.000  0.009
    4  0.000  0.000  0.000  0.000  0.000  0.003  0.000  0.007  0.000  0.010
    5  0.000  0.000  0.000  0.000  0.000  0.045  0.000  0.044  0.000  0.089
    6  0.000  0.000  0.000  0.000  0.000  0.010  0.000  0.009  0.000  0.019
    7  0.000  0.000  0.000  0.000  0.000  0.013  0.000  0.094  0.000  0.107
    8  0.000  0.000  0.000  0.000  0.000  0.010  0.000  0.009  0.000  0.019
    9  0.000  0.000  0.000  0.000  0.000  0.013  0.000  0.094  0.000  0.107
   10  0.000  0.000  0.000  0.000  0.000  0.002  0.000  0.007  0.000  0.009
   11  0.000  0.000  0.000  0.000  0.000  0.003  0.000  0.007  0.000  0.010
   12  0.000  0.000  0.000  0.000  0.000  0.000  0.000  0.000  0.000  0.000
   13  0.000  0.003  0.000  0.000  0.000  0.000  0.000  0.000  0.000  0.004
   14  0.000  0.013  0.000  0.004  0.000  0.002  0.000  0.001  0.000  0.020
   15  0.000  0.013  0.000  0.004  0.000  0.002  0.000  0.001  0.000  0.020
   16  0.001  0.002  0.005  0.012  0.000  0.000  0.000  0.000  0.000  0.021
   17  0.001  0.002  0.005  0.012  0.000  0.000  0.000  0.000  0.000  0.021
   18  0.000  0.004  0.000  0.002  0.000  0.001  0.000  0.000  0.000  0.007
   19  0.000  0.004  0.000  0.002  0.000  0.001  0.000  0.000  0.000  0.007
   20  0.000  0.003  0.000  0.000  0.000  0.000  0.000  0.000  0.000  0.004
   21  0.000  0.013  0.000  0.004  0.000  0.002  0.000  0.001  0.000  0.020
   22  0.000  0.013  0.000  0.004  0.000  0.002  0.000  0.001  0.000  0.020
   23  0.001  0.006  0.007  0.012  0.000  0.000  0.000  0.000  0.000  0.027
   24  0.001  0.006  0.007  0.012  0.000  0.000  0.000  0.000  0.000  0.027
   25  0.000  0.001  0.000  0.000  0.000  0.000  0.000  0.000  0.000  0.001
   26  0.000  0.001  0.000  0.000  0.000  0.000  0.000  0.000  0.000  0.001
   27  0.000  0.003  0.000  0.000  0.000  0.000  0.000  0.000  0.000  0.004
   28  0.000  0.003  0.000  0.000  0.000  0.000  0.000  0.000  0.000  0.004
   29  0.001  0.002  0.005  0.012  0.000  0.000  0.000  0.000  0.000  0.021
   30  0.000  0.004  0.000  0.002  0.000  0.001  0.000  0.000  0.000  0.007
   31  0.000  0.004  0.000  0.002  0.000  0.001  0.000  0.000  0.000  0.007
   32  0.001  0.002  0.005  0.012  0.000  0.000  0.000  0.000  0.000  0.021
   33  0.000  0.001  0.000  0.000  0.000  0.000  0.000  0.000  0.000  0.001
   34  0.000  0.001  0.000  0.000  0.000  0.000  0.000  0.000  0.000  0.001
   35  0.001  0.006  0.007  0.012  0.000  0.000  0.000  0.000  0.000  0.026
   36  0.001  0.006  0.007  0.012  0.000  0.000  0.000  0.000  0.000  0.026
tot    0.011  0.115  0.052  0.121  0.002  0.156  0.000  0.331  0.001  0.790
 
band   151 # energy    2.71291416 # occ.  0.00000000
 
ion      s     py     pz     px    dxy    dyz    dz2    dxz  x2-y2    tot
    1  0.000  0.000  0.000  0.000  0.000  0.007  0.000  0.000  0.000  0.008
    2  0.000  0.000  0.000  0.000  0.000  0.000  0.000  0.025  0.000  0.025
    3  0.000  0.000  0.000  0.000  0.000  0.021  0.000  0.019  0.000  0.040
    4  0.000  0.000  0.000  0.000  0.000  0.004  0.000  0.015  0.000  0.019
    5  0.000  0.000  0.000  0.000  0.000  0.000  0.000  0.025  0.000  0.025
    6  0.000  0.000  0.000  0.000  0.000  0.029  0.000  0.069  0.000  0.098
    7  0.000  0.000  0.000  0.000  0.000  0.034  0.000  0.011  0.000  0.044
    8  0.000  0.000  0.000  0.000  0.000  0.030  0.000  0.069  0.000  0.098
    9  0.000  0.000  0.000  0.000  0.000  0.033  0.000  0.011  0.000  0.044
   10  0.000  0.000  0.000  0.000  0.000  0.021  0.000  0.019  0.000  0.041
   11  0.000  0.000  0.000  0.000  0.000  0.004  0.000  0.016  0.000  0.019
   12  0.000  0.000  0.000  0.000  0.000  0.007  0.000  0.000  0.000  0.008
   13  0.000  0.002  0.001  0.013  0.000  0.001  0.000  0.001  0.000  0.019
   14  0.000  0.000  0.000  0.000  0.000  0.000  0.000  0.000  0.000  0.001
   15  0.000  0.000  0.000  0.000  0.000  0.000  0.000  0.000  0.000  0.001
   16  0.000  0.000  0.001  0.006  0.000  0.000  0.000  0.000  0.000  0.008
   17  0.000  0.000  0.001  0.006  0.000  0.000  0.000  0.000  0.000  0.008
   18  0.000  0.004  0.002  0.009  0.000  0.001  0.000  0.001  0.000  0.017
   19  0.000  0.004  0.002  0.009  0.000  0.001  0.000  0.001  0.000  0.017
   20  0.000  0.002  0.001  0.013  0.000  0.001  0.000  0.001  0.000  0.019
   21  0.000  0.000  0.000  0.000  0.000  0.000  0.000  0.000  0.000  0.001
   22  0.000  0.000  0.000  0.000  0.000  0.000  0.000  0.000  0.000  0.001
   23  0.000  0.000  0.002  0.004  0.000  0.000  0.000  0.000  0.000  0.006
   24  0.000  0.000  0.002  0.004  0.000  0.000  0.000  0.000  0.000  0.006
   25  0.001  0.000  0.006  0.020  0.000  0.000  0.000  0.001  0.000  0.029
   26  0.001  0.000  0.006  0.020  0.000  0.000  0.000  0.001  0.000  0.029
   27  0.000  0.002  0.001  0.013  0.000  0.001  0.000  0.001  0.000  0.019
   28  0.000  0.002  0.001  0.013  0.000  0.001  0.000  0.001  0.000  0.019
   29  0.000  0.000  0.001  0.006  0.000  0.000  0.000  0.000  0.000  0.008
   30  0.000  0.004  0.002  0.009  0.000  0.001  0.000  0.001  0.000  0.017
   31  0.000  0.004  0.002  0.009  0.000  0.001  0.000  0.001  0.000  0.017
   32  0.000  0.000  0.001  0.006  0.000  0.000  0.000  0.000  0.000  0.008
   33  0.001  0.000  0.006  0.020  0.000  0.000  0.000  0.001  0.000  0.029
   34  0.001  0.000  0.006  0.020  0.000  0.000  0.000  0.001  0.000  0.029
   35  0.000  0.000  0.002  0.004  0.000  0.000  0.000  0.000  0.000  0.006
   36  0.000  0.000  0.002  0.004  0.000  0.000  0.000  0.000  0.000  0.006
tot    0.011  0.026  0.052  0.210  0.002  0.198  0.000  0.290  0.001  0.790
 
band   152 # energy    2.71310350 # occ.  0.00000000
 
ion      s     py     pz     px    dxy    dyz    dz2    dxz  x2-y2    tot
    1  0.000  0.000  0.000  0.000  0.000  0.040  0.000  0.075  0.000  0.115
    2  0.000  0.000  0.000  0.000  0.000  0.003  0.000  0.005  0.000  0.008
    3  0.000  0.000  0.000  0.000  0.000  0.002  0.000  0.069  0.000  0.071
    4  0.000  0.000  0.000  0.000  0.000  0.024  0.000  0.000  0.000  0.025
    5  0.000  0.000  0.000  0.000  0.000  0.003  0.000  0.005  0.000  0.008
    6  0.000  0.000  0.000  0.000  0.000  0.003  0.000  0.011  0.000  0.014
    7  0.000  0.000  0.000  0.000  0.000  0.000  0.000  0.001  0.000  0.001
    8  0.000  0.000  0.000  0.000  0.000  0.003  0.000  0.011  0.000  0.014
    9  0.000  0.000  0.000  0.000  0.000  0.000  0.000  0.001  0.000  0.001
   10  0.000  0.000  0.000  0.000  0.000  0.002  0.000  0.069  0.000  0.071
   11  0.000  0.000  0.000  0.000  0.000  0.024  0.000  0.000  0.000  0.025
   12  0.000  0.000  0.000  0.000  0.000  0.040  0.000  0.075  0.000  0.115
   13  0.000  0.000  0.001  0.002  0.000  0.000  0.000  0.000  0.000  0.003
   14  0.002  0.004  0.007  0.016  0.000  0.000  0.000  0.000  0.000  0.030
   15  0.002  0.004  0.007  0.016  0.000  0.000  0.000  0.000  0.000  0.030
   16  0.000  0.007  0.000  0.002  0.000  0.001  0.000  0.000  0.000  0.010
   17  0.000  0.007  0.000  0.002  0.000  0.001  0.000  0.000  0.000  0.010
   18  0.001  0.005  0.004  0.006  0.000  0.000  0.000  0.000  0.000  0.017
   19  0.001  0.005  0.004  0.006  0.000  0.000  0.000  0.000  0.000  0.017
   20  0.000  0.000  0.001  0.002  0.000  0.000  0.000  0.000  0.000  0.003
   21  0.002  0.004  0.007  0.016  0.000  0.000  0.000  0.000  0.000  0.030
   22  0.002  0.004  0.007  0.016  0.000  0.000  0.000  0.000  0.000  0.030
   23  0.000  0.012  0.000  0.004  0.000  0.002  0.000  0.001  0.000  0.019
   24  0.000  0.012  0.000  0.004  0.000  0.002  0.000  0.001  0.000  0.019
   25  0.000  0.001  0.000  0.001  0.000  0.000  0.000  0.000  0.000  0.002
   26  0.000  0.001  0.000  0.001  0.000  0.000  0.000  0.000  0.000  0.002
   27  0.000  0.000  0.001  0.002  0.000  0.000  0.000  0.000  0.000  0.003
   28  0.000  0.000  0.001  0.002  0.000  0.000  0.000  0.000  0.000  0.003
   29  0.000  0.007  0.000  0.002  0.000  0.001  0.000  0.000  0.000  0.010
   30  0.001  0.005  0.004  0.006  0.000  0.000  0.000  0.000  0.000  0.017
   31  0.001  0.005  0.004  0.006  0.000  0.000  0.000  0.000  0.000  0.017
   32  0.000  0.007  0.000  0.002  0.000  0.001  0.000  0.000  0.000  0.010
   33  0.000  0.001  0.000  0.000  0.000  0.000  0.000  0.000  0.000  0.002
   34  0.000  0.001  0.000  0.000  0.000  0.000  0.000  0.000  0.000  0.002
   35  0.000  0.012  0.000  0.004  0.000  0.002  0.000  0.001  0.000  0.019
   36  0.000  0.012  0.000  0.004  0.000  0.002  0.000  0.001  0.000  0.019
tot    0.011  0.113  0.052  0.123  0.002  0.157  0.000  0.331  0.001  0.790
 
# of k-points:    1         # of bands:  152         # of ions:   36

 k-point     1 :    0.00000000 0.00000000 0.00000000     weight = 1.00000000

band     1 # energy  -15.30443311 # occ.  1.00000000
 
ion      s     py     pz     px    dxy    dyz    dz2    dxz  x2-y2    tot
    1  0.008  0.000  0.000  0.000  0.000  0.000  0.000  0.000  0.000  0.008
    2  0.008  0.000  0.000  0.000  0.000  0.000  0.000  0.000  0.000  0.008
    3  0.008  0.000  0.000  0.000  0.000  0.000  0.000  0.000  0.000  0.008
    4  0.008  0.000  0.000  0.000  0.000  0.000  0.000  0.000  0.000  0.008
    5  0.008  0.000  0.000  0.000  0.000  0.000  0.000  0.000  0.000  0.008
    6  0.008  0.000  0.000  0.000  0.000  0.000  0.000  0.000  0.000  0.008
    7  0.008  0.000  0.000  0.000  0.000  0.000  0.000  0.000  0.000  0.008
    8  0.008  0.000  0.000  0.000  0.000  0.000  0.000  0.000  0.000  0.008
    9  0.008  0.000  0.000  0.000  0.000  0.000  0.000  0.000  0.000  0.008
   10  0.008  0.000  0.000  0.000  0.000  0.000  0.000  0.000  0.000  0.008
   11  0.008  0.000  0.000  0.000  0.000  0.000  0.000  0.000  0.000  0.008
   12  0.008  0.000  0.000  0.000  0.000  0.000  0.000  0.000  0.000  0.008
   13  0.026  0.000  0.000  0.000  0.000  0.000  0.000  0.000  0.000  0.026
   14  0.026  0.000  0.000  0.000  0.000  0.000  0.000  0.000  0.000  0.026
   15  0.026  0.000  0.000  0.000  0.000  0.000  0.000  0.000  0.000  0.026
   16  0.026  0.000  0.000  0.000  0.000  0.000  0.000  0.000  0.000  0.026
   17  0.026  0.000  0.000  0.000  0.000  0.000  0.000  0.000  0.000  0.026
   18  0.026  0.000  0.000  0.000  0.000  0.000  0.000  0.000  0.000  0.026
   19  0.026  0.000  0.000  0.000  0.000  0.000  0.000  0.000  0.000  0.026
   20  0.026  0.000  0.000  0.000  0.000  0.000  0.000  0.000  0.000  0.026
   21  0.026  0.000  0.000  0.000  0.000  0.000  0.000  0.000  0.000  0.026
   22  0.026  0.000  0.000  0.000  0.000  0.000  0.000  0.000  0.000  0.026
   23  0.026  0.000  0.000  0.000  0.000  0.000  0.000  0.000  0.000  0.026
   24  0.026  0.000  0.000  0.000  0.000  0.000  0.000  0.000  0.000  0.026
   25  0.026  0.000  0.000  0.000  0.000  0.000  0.000  0.000  0.000  0.026
   26  0.026  0.000  0.000  0.000  0.000  0.000  0.000  0.000  0.000  0.026
   27  0.026  0.000  0.000  0.000  0.000  0.000  0.000  0.000  0.000  0.026
   28  0.026  0.000  0.000  0.000  0.000  0.000  0.000  0.000  0.000  0.026
   29  0.026  0.000  0.000  0.000  0.000  0.000  0.000  0.000  0.000  0.026
   30  0.026  0.000  0.000  0.000  0.000  0.000  0.000  0.000  0.000  0.026
   31  0.026  0.000  0.000  0.000  0.000  0.000  0.000  0.000  0.000  0.026
   32  0.026  0.000  0.000  0.000  0.000  0.000  0.000  0.000  0.000  0.026
   33  0.026  0.000  0.000  0.000  0.000  0.000  0.000  0.000  0.000  0.026
   34  0.026  0.000  0.000  0.000  0.000  0.000  0.000  0.000  0.000  0.026
   35  0.026  0.000  0.000  0.000  0.000  0.000  0.000  0.000  0.000  0.026
   36  0.026  0.000  0.000  0.000  0.000  0.000  0.000  0.000  0.000  0.026
tot    0.709  0.000  0.008  0.000  0.000  0.000  0.001  0.000  0.000  0.717
 
band     2 # energy  -14.57813748 # occ.  1.00000000
 
ion      s     py     pz     px    dxy    dyz    dz2    dxz  x2-y2    tot
    1  0.010  0.000  0.000  0.000  0.000  0.000  0.000  0.000  0.000  0.010
    2  0.000  0.001  0.000  0.002  0.001  0.000  0.000  0.000  0.000  0.004
    3  0.010  0.000  0.000  0.000  0.000  0.000  0.000  0.000  0.000  0.010
    4  0.010  0.000  0.000  0.000  0.000  0.000  0.000  0.000  0.000  0.010
    5  0.000  0.001  0.000  0.002  0.001  0.000  0.000  0.000  0.000  0.004
    6  0.000  0.001  0.000  0.002  0.001  0.000  0.000  0.000  0.000  0.004
    7  0.000  0.001  0.000  0.002  0.001  0.000  0.000  0.000  0.000  0.004
    8  0.000  0.001  0.000  0.002  0.001  0.000  0.000  0.000  0.000  0.004
    9  0.000  0.001  0.000  0.002  0.001  0.000  0.000  0.000  0.000  0.004
   10  0.010  0.000  0.000  0.000  0.000  0.000  0.000  0.000  0.000  0.010
   11  0.010  0.000  0.000  0.000  0.000  0.000  0.000  0.000  0.000  0.010
   12  0.010  0.000  0.000  0.000  0.000  0.000  0.000  0.000  0.000  0.010
   13  0.021  0.000  0.000  0.000  0.000  0.000  0.000  0.000  0.000  0.022
   14  0.021  0.000  0.000  0.000  0.000  0.000  0.000  0.000  0.000  0.022
   15  0.021  0.000  0.000  0.000  0.000  0.000  0.000  0.000  0.000  0.022
   16  0.032  0.000  0.000  0.000  0.000  0.000  0.000  0.000  0.000  0.033
   17  0.032  0.000  0.000  0.000  0.000  0.000  0.000  0.000  0.000  0.033
   18  0.021  0.000  0.000  0.000  0.000  0.000  0.000  0.000  0.000  0.022
   19  0.021  0.000  0.000  0.000  0.000  0.000  0.000  0.000  0.000  0.022
   20  0.021  0.000  0.000  0.000  0.000  0.000  0.000  0.000  0.000  0.022
   21  0.021  0.000  0.000  0.000  0.000  0.000  0.000  0.000  0.000  0.022
   22  0.021  0.000  0.000  0.000  0.000  0.000  0.000  0.000  0.000  0.022
   23  0.032  0.000  0.000  0.000  0.000  0.000  0.000  0.000  0.000  0.033
   24  0.032  0.000  0.000  0.000  0.000  0.000  0.000  0.000  0.000  0.033
   25  0.032  0.000  0.000  0.000  0.000  0.000  0.000  0.000  0.000  0.033
   26  0.032  0.000  0.000  0.000  0.000  0.000  0.000  0.000  0.000  0.033
   27  0.021  0.000  0.000  0.000  0.000  0.000  0.000  0.000  0.000  0.022
   28  0.021  0.000  0.000  0.000  0.000  0.000  0.000  0.000  0.000  0.022
   29  0.032  0.000  0.000  0.000  0.000  0.000  0.000  0.000  0.000  0.033
   30  0.021  0.000  0.000  0.000  0.000  0.000  0.000  0.000  0.000  0.022
   31  0.021  0.000  0.000  0.000  0.000  0.000  0.000  0.000  0.000  0.022
   32  0.032  0.000  0.000  0.000  0.000  0.000  0.000  0.000  0.000  0.033
   33  0.032  0.000  0.000  0.000  0.000  0.000  0.000  0.000  0.000  0.033
   34  0.032  0.000  0.000  0.000  0.000  0.000  0.000  0.000  0.000  0.033
   35  0.032  0.000  0.000  0.000  0.000  0.000  0.000  0.000  0.000  0.033
   36  0.032  0.000  0.000  0.000  0.000  0.000  0.000  0.000  0.000  0.033
tot    0.707  0.005  0.008  0.015  0.007  0.000  0.001  0.000  0.002  0.745
 
band     3 # energy  -14.57735798 # occ.  1.00000000
 
ion      s     py     pz     px    dxy    dyz    dz2    dxz  x2-y2    tot
    1  0.000  0.001  0.000  0.002  0.001  0.000  0.000  0.000  0.000  0.004
    2  0.010  0.000  0.000  0.000  0.000  0.000  0.000  0.000  0.000  0.010
    3  0.000  0.001  0.000  0.002  0.001  0.000  0.000  0.000  0.000  0.004
    4  0.000  0.001  0.000  0.002  0.001  0.000  0.000  0.000  0.000  0.004
    5  0.010  0.000  0.000  0.000  0.000  0.000  0.000  0.000  0.000  0.010
    6  0.010  0.000  0.000  0.000  0.000  0.000  0.000  0.000  0.000  0.010
    7  0.010  0.000  0.000  0.000  0.000  0.000  0.000  0.000  0.000  0.010
    8  0.010  0.000  0.000  0.000  0.000  0.000  0.000  0.000  0.000  0.010
    9  0.010  0.000  0.000  0.000  0.000  0.000  0.000  0.000  0.000  0.010
   10  0.000  0.001  0.000  0.002  0.001  0.000  0.000  0.000  0.000  0.004
   11  0.000  0.001  0.000  0.002  0.001  0.000  0.000  0.000  0.000  0.004
   12  0.000  0.001  0.000  0.002  0.001  0.000  0.000  0.000  0.000  0.004
   13  0.032  0.000  0.000  0.000  0.000  0.000  0.000  0.000  0.000  0.033
   14  0.032  0.000  0.000  0.000  0.000  0.000  0.000  0.000  0.000  0.033
   15  0.032  0.000  0.000  0.000  0.000  0.000  0.000  0.000  0.000  0.033
   16  0.021  0.000  0.000  0.000  0.000  0.000  0.000  0.000  0.000  0.022
   17  0.021  0.000  0.000  0.000  0.000  0.000  0.000  0.000  0.000  0.022
   18  0.032  0.000  0.000  0.000  0.000  0.000  0.000  0.000  0.000  0.033
   19  0.032  0.000  0.000  0.000  0.000  0.000  0.000  0.000  0.000  0.033
   20  0.032  0.000  0.000  0.000  0.000  0.000  0.000  0.000  0.000  0.033
   21  0.032  0.000  0.000  0.000  0.000  0.000  0.000  0.000  0.000  0.033
   22  0.032  0.000  0.000  0.000  0.000  0.000  0.000  0.000  0.000  0.033
   23  0.021  0.000  0.000  0.000  0.000  0.000  0.000  0.000  0.000  0.022
   24  0.021  0.000  0.000  0.000  0.000  0.000  0.000  0.000  0.000  0.022
   25  0.021  0.000  0.000  0.000  0.000  0.000  0.000  0.000  0.000  0.022
   26  0.021  0.000  0.000  0.000  0.000  0.000  0.000  0.000  0.000  0.022
   27  0.032  0.000  0.000  0.000  0.000  0.000  0.000  0.000  0.000  0.033
   28  0.032  0.000  0.000  0.000  0.000  0.000  0.000  0.000  0.000  0.033
   29  0.021  0.000  0.000  0.000  0.000  0.000  0.000  0.000  0.000  0.022
   30  0.032  0.000  0.000  0.000  0.000  0.000  0.000  0.000  0.000  0.033
   31  0.032  0.000  0.000  0.000  0.000  0.000  0.000  0.000  0.000  0.033
   32  0.021  0.000  0.000  0.000  0.000  0.000  0.000  0.000  0.000  0.022
   33  0.021  0.000  0.000  0.000  0.000  0.000  0.000  0.000  0.000  0.022
   34  0.021  0.000  0.000  0.000  0.000  0.000  0.000  0.000  0.000  0.022
   35  0.021  0.000  0.000  0.000  0.000  0.000  0.000  0.000  0.000  0.022
   36  0.021  0.000  0.000  0.000  0.000  0.000  0.000  0.000  0.000  0.022
tot    0.707  0.005  0.008  0.015  0.007  0.000  0.001  0.000  0.002  0.745
 
band     4 # energy  -14.36883304 # occ.  1.00000000
 
ion      s     py     pz     px    dxy    dyz    dz2    dxz  x2-y2    tot
    1  0.002  0.001  0.000  0.001  0.001  0.000  0.000  0.000  0.001  0.006
    2  0.002  0.002  0.000  0.000  0.000  0.000  0.000  0.000  0.001  0.006
    3  0.002  0.002  0.000  0.000  0.000  0.000  0.000  0.000  0.001  0.006
    4  0.009  0.000  0.000  0.000  0.000  0.000  0.000  0.000  0.000  0.010
    5  0.002  0.002  0.000  0.000  0.000  0.000  0.000  0.000  0.001  0.006
    6  0.002  0.001  0.000  0.001  0.001  0.000  0.000  0.000  0.001  0.006
    7  0.009  0.000  0.000  0.000  0.000  0.000  0.000  0.000  0.000  0.010
    8  0.002  0.001  0.000  0.001  0.001  0.000  0.000  0.000  0.001  0.006
    9  0.009  0.000  0.000  0.000  0.000  0.000  0.000  0.000  0.000  0.010
   10  0.002  0.002  0.000  0.000  0.000  0.000  0.000  0.000  0.001  0.006
   11  0.009  0.000  0.000  0.000  0.000  0.000  0.000  0.000  0.000  0.010
   12  0.002  0.001  0.000  0.001  0.001  0.000  0.000  0.000  0.001  0.006
   13  0.054  0.000  0.001  0.000  0.000  0.000  0.000  0.000  0.000  0.055
   14  0.014  0.000  0.000  0.000  0.000  0.000  0.000  0.000  0.000  0.014
   15  0.014  0.000  0.000  0.000  0.000  0.000  0.000  0.000  0.000  0.014
   16  0.014  0.000  0.000  0.000  0.000  0.000  0.000  0.000  0.000  0.014
   17  0.014  0.000  0.000  0.000  0.000  0.000  0.000  0.000  0.000  0.014
   18  0.014  0.000  0.000  0.000  0.000  0.000  0.000  0.000  0.000  0.014
   19  0.014  0.000  0.000  0.000  0.000  0.000  0.000  0.000  0.000  0.014
   20  0.054  0.000  0.001  0.000  0.000  0.000  0.000  0.000  0.000  0.055
   21  0.014  0.000  0.000  0.000  0.000  0.000  0.000  0.000  0.000  0.014
   22  0.014  0.000  0.000  0.000  0.000  0.000  0.000  0.000  0.000  0.014
   23  0.054  0.000  0.001  0.000  0.000  0.000  0.000  0.000  0.000  0.055
   24  0.054  0.000  0.001  0.000  0.000  0.000  0.000  0.000  0.000  0.055
   25  0.014  0.000  0.000  0.000  0.000  0.000  0.000  0.000  0.000  0.014
   26  0.014  0.000  0.000  0.000  0.000  0.000  0.000  0.000  0.000  0.014
   27  0.054  0.000  0.001  0.000  0.000  0.000  0.000  0.000  0.000  0.055
   28  0.054  0.000  0.001  0.000  0.000  0.000  0.000  0.000  0.000  0.055
   29  0.014  0.000  0.000  0.000  0.000  0.000  0.000  0.000  0.000  0.014
   30  0.014  0.000  0.000  0.000  0.000  0.000  0.000  0.000  0.000  0.014
   31  0.014  0.000  0.000  0.000  0.000  0.000  0.000  0.000  0.000  0.014
   32  0.014  0.000  0.000  0.000  0.000  0.000  0.000  0.000  0.000  0.014
   33  0.014  0.000  0.000  0.000  0.000  0.000  0.000  0.000  0.000  0.014
   34  0.014  0.000  0.000  0.000  0.000  0.000  0.000  0.000  0.000  0.014
   35  0.054  0.000  0.001  0.000  0.000  0.000  0.000  0.000  0.000  0.055
   36  0.054  0.000  0.001  0.000  0.000  0.000  0.000  0.000  0.000  0.055
tot    0.707  0.018  0.008  0.007  0.004  0.000  0.001  0.000  0.008  0.754
 
band     5 # energy  -14.36859200 # occ.  1.00000000
 
ion      s     py     pz     px    dxy    dyz    dz2    dxz  x2-y2    tot
    1  0.007  0.001  0.000  0.000  0.000  0.000  0.000  0.000  0.001  0.008
    2  0.007  0.000  0.000  0.001  0.001  0.000  0.000  0.000  0.000  0.008
    3  0.007  0.000  0.000  0.001  0.001  0.000  0.000  0.000  0.000  0.008
    4  0.000  0.002  0.000  0.001  0.000  0.000  0.000  0.000  0.001  0.005
    5  0.007  0.000  0.000  0.001  0.001  0.000  0.000  0.000  0.000  0.008
    6  0.007  0.001  0.000  0.000  0.000  0.000  0.000  0.000  0.001  0.008
    7  0.000  0.002  0.000  0.001  0.000  0.000  0.000  0.000  0.001  0.005
    8  0.007  0.001  0.000  0.000  0.000  0.000  0.000  0.000  0.001  0.008
    9  0.000  0.002  0.000  0.001  0.000  0.000  0.000  0.000  0.001  0.005
   10  0.007  0.000  0.000  0.001  0.001  0.000  0.000  0.000  0.000  0.008
   11  0.000  0.002  0.000  0.001  0.000  0.000  0.000  0.000  0.001  0.005
   12  0.007  0.001  0.000  0.000  0.000  0.000  0.000  0.000  0.001  0.008
   13  0.000  0.000  0.000  0.000  0.000  0.000  0.000  0.000  0.000  0.000
   14  0.041  0.000  0.000  0.000  0.000  0.000  0.000  0.000  0.000  0.041
   15  0.041  0.000  0.000  0.000  0.000  0.000  0.000  0.000  0.000  0.041
   16  0.041  0.000  0.000  0.000  0.000  0.000  0.000  0.000  0.000  0.041
   17  0.041  0.000  0.000  0.000  0.000  0.000  0.000  0.000  0.000  0.041
   18  0.041  0.000  0.000  0.000  0.000  0.000  0.000  0.000  0.000  0.041
   19  0.041  0.000  0.000  0.000  0.000  0.000  0.000  0.000  0.000  0.041
   20  0.000  0.000  0.000  0.000  0.000  0.000  0.000  0.000  0.000  0.000
   21  0.041  0.000  0.000  0.000  0.000  0.000  0.000  0.000  0.000  0.041
   22  0.041  0.000  0.000  0.000  0.000  0.000  0.000  0.000  0.000  0.041
   23  0.000  0.000  0.000  0.000  0.000  0.000  0.000  0.000  0.000  0.000
   24  0.000  0.000  0.000  0.000  0.000  0.000  0.000  0.000  0.000  0.000
   25  0.041  0.000  0.000  0.000  0.000  0.000  0.000  0.000  0.000  0.041
   26  0.041  0.000  0.000  0.000  0.000  0.000  0.000  0.000  0.000  0.041
   27  0.000  0.000  0.000  0.000  0.000  0.000  0.000  0.000  0.000  0.000
   28  0.000  0.000  0.000  0.000  0.000  0.000  0.000  0.000  0.000  0.000
   29  0.041  0.000  0.000  0.000  0.000  0.000  0.000  0.000  0.000  0.041
   30  0.041  0.000  0.000  0.000  0.000  0.000  0.000  0.000  0.000  0.041
   31  0.041  0.000  0.000  0.000  0.000  0.000  0.000  0.000  0.000  0.041
   32  0.041  0.000  0.000  0.000  0.000  0.000  0.000  0.000  0.000  0.041
   33  0.041  0.000  0.000  0.000  0.000  0.000  0.000  0.000  0.000  0.041
   34  0.041  0.000  0.000  0.000  0.000  0.000  0.000  0.000  0.000  0.041
   35  0.000  0.000  0.000  0.000  0.000  0.000  0.000  0.000  0.000  0.000
   36  0.000  0.000  0.000  0.000  0.000  0.000  0.000  0.000  0.000  0.000
tot    0.707  0.018  0.008  0.007  0.004  0.000  0.001  0.000  0.008  0.754
 
band     6 # energy  -14.36640238 # occ.  1.00000000
 
ion      s     py     pz     px    dxy    dyz    dz2    dxz  x2-y2    tot
    1  0.000  0.000  0.004  0.000  0.000  0.000  0.000  0.000  0.000  0.004
    2  0.000  0.000  0.004  0.000  0.000  0.000  0.000  0.000  0.000  0.004
    3  0.000  0.000  0.004  0.000  0.000  0.000  0.000  0.000  0.000  0.004
    4  0.000  0.000  0.004  0.000  0.000  0.000  0.000  0.000  0.000  0.004
    5  0.000  0.000  0.004  0.000  0.000  0.000  0.000  0.000  0.000  0.004
    6  0.000  0.000  0.004  0.000  0.000  0.000  0.000  0.000  0.000  0.004
    7  0.000  0.000  0.004  0.000  0.000  0.000  0.000  0.000  0.000  0.004
    8  0.000  0.000  0.004  0.000  0.000  0.000  0.000  0.000  0.000  0.004
    9  0.000  0.000  0.004  0.000  0.000  0.000  0.000  0.000  0.000  0.004
   10  0.000  0.000  0.004  0.000  0.000  0.000  0.000  0.000  0.000  0.004
   11  0.000  0.000  0.004  0.000  0.000  0.000  0.000  0.000  0.000  0.004
   12  0.000  0.000  0.004  0.000  0.000  0.000  0.000  0.000  0.000  0.004
   13  0.028  0.000  0.000  0.000  0.000  0.000  0.000  0.000  0.000  0.028
   14  0.028  0.000  0.000  0.000  0.000  0.000  0.000  0.000  0.000  0.028
   15  0.028  0.000  0.000  0.000  0.000  0.000  0.000  0.000  0.000  0.028
   16  0.028  0.000  0.000  0.000  0.000  0.000  0.000  0.000  0.000  0.028
   17  0.028  0.000  0.000  0.000  0.000  0.000  0.000  0.000  0.000  0.028
   18  0.028  0.000  0.000  0.000  0.000  0.000  0.000  0.000  0.000  0.028
   19  0.028  0.000  0.000  0.000  0.000  0.000  0.000  0.000  0.000  0.028
   20  0.028  0.000  0.000  0.000  0.000  0.000  0.000  0.000  0.000  0.028
   21  0.028  0.000  0.000  0.000  0.000  0.000  0.000  0.000  0.000  0.028
   22  0.028  0.000  0.000  0.000  0.000  0.000  0.000  0.000  0.000  0.028
   23  0.028  0.000  0.000  0.000  0.000  0.000  0.000  0.000  0.000  0.028
   24  0.028  0.000  0.000  0.000  0.000  0.000  0.000  0.000  0.000  0.028
   25  0.028  0.000  0.000  0.000  0.000  0.000  0.000  0.000  0.000  0.028
   26  0.028  0.000  0.000  0.000  0.000  0.000  0.000  0.000  0.000  0.028
   27  0.028  0.000  0.000  0.000  0.000  0.000  0.000  0.000  0.000  0.028
   28  0.028  0.000  0.000  0.000  0.000  0.000  0.000  0.000  0.000  0.028
   29  0.028  0.000  0.000  0.000  0.000  0.000  0.000  0.000  0.000  0.028
   30  0.028  0.000  0.000  0.000  0.000  0.000  0.000  0.000  0.000  0.028
   31  0.028  0.000  0.000  0.000  0.000  0.000  0.000  0.000  0.000  0.028
   32  0.028  0.000  0.000  0.000  0.000  0.000  0.000  0.000  0.000  0.028
   33  0.028  0.000  0.000  0.000  0.000  0.000  0.000  0.000  0.000  0.028
   34  0.028  0.000  0.000  0.000  0.000  0.000  0.000  0.000  0.000  0.028
   35  0.028  0.000  0.000  0.000  0.000  0.000  0.000  0.000  0.000  0.028
   36  0.028  0.000  0.000  0.000  0.000  0.000  0.000  0.000  0.000  0.028
tot    0.682  0.000  0.044  0.000  0.000  0.000  0.000  0.000  0.000  0.727
 
band     7 # energy  -13.93059483 # occ.  1.00000000
 
ion      s     py     pz     px    dxy    dyz    dz2    dxz  x2-y2    tot
    1  0.000  0.000  0.004  0.000  0.000  0.000  0.000  0.000  0.000  0.004
    2  0.000  0.000  0.000  0.000  0.000  0.001  0.000  0.004  0.000  0.006
    3  0.000  0.000  0.004  0.000  0.000  0.000  0.000  0.000  0.000  0.004
    4  0.000  0.000  0.004  0.000  0.000  0.000  0.000  0.000  0.000  0.004
    5  0.000  0.000  0.000  0.000  0.000  0.001  0.000  0.004  0.000  0.006
    6  0.000  0.000  0.000  0.000  0.000  0.001  0.000  0.004  0.000  0.006
    7  0.000  0.000  0.000  0.000  0.000  0.001  0.000  0.004  0.000  0.006
    8  0.000  0.000  0.000  0.000  0.000  0.001  0.000  0.004  0.000  0.006
    9  0.000  0.000  0.000  0.000  0.000  0.001  0.000  0.004  0.000  0.006
   10  0.000  0.000  0.004  0.000  0.000  0.000  0.000  0.000  0.000  0.004
   11  0.000  0.000  0.004  0.000  0.000  0.000  0.000  0.000  0.000  0.004
   12  0.000  0.000  0.004  0.000  0.000  0.000  0.000  0.000  0.000  0.004
   13  0.027  0.000  0.000  0.000  0.000  0.000  0.000  0.000  0.000  0.027
   14  0.027  0.000  0.000  0.000  0.000  0.000  0.000  0.000  0.000  0.027
   15  0.027  0.000  0.000  0.000  0.000  0.000  0.000  0.000  0.000  0.027
   16  0.031  0.000  0.000  0.000  0.000  0.000  0.000  0.000  0.000  0.031
   17  0.031  0.000  0.000  0.000  0.000  0.000  0.000  0.000  0.000  0.031
   18  0.027  0.000  0.000  0.000  0.000  0.000  0.000  0.000  0.000  0.027
   19  0.027  0.000  0.000  0.000  0.000  0.000  0.000  0.000  0.000  0.027
   20  0.027  0.000  0.000  0.000  0.000  0.000  0.000  0.000  0.000  0.027
   21  0.027  0.000  0.000  0.000  0.000  0.000  0.000  0.000  0.000  0.027
   22  0.027  0.000  0.000  0.000  0.000  0.000  0.000  0.000  0.000  0.027
   23  0.031  0.000  0.000  0.000  0.000  0.000  0.000  0.000  0.000  0.031
   24  0.031  0.000  0.000  0.000  0.000  0.000  0.000  0.000  0.000  0.031
   25  0.031  0.000  0.000  0.000  0.000  0.000  0.000  0.000  0.000  0.031
   26  0.031  0.000  0.000  0.000  0.000  0.000  0.000  0.000  0.000  0.031
   27  0.027  0.000  0.000  0.000  0.000  0.000  0.000  0.000  0.000  0.027
   28  0.027  0.000  0.000  0.000  0.000  0.000  0.000  0.000  0.000  0.027
   29  0.031  0.000  0.000  0.000  0.000  0.000  0.000  0.000  0.000  0.031
   30  0.027  0.000  0.000  0.000  0.000  0.000  0.000  0.000  0.000  0.027
   31  0.027  0.000  0.000  0.000  0.000  0.000  0.000  0.000  0.000  0.027
   32  0.031  0.000  0.000  0.000  0.000  0.000  0.000  0.000  0.000  0.031
   33  0.031  0.000  0.000  0.000  0.000  0.000  0.000  0.000  0.000  0.031
   34  0.031  0.000  0.000  0.000  0.000  0.000  0.000  0.000  0.000  0.031
   35  0.031  0.000  0.000  0.000  0.000  0.000  0.000  0.000  0.000  0.031
   36  0.031  0.000  0.000  0.000  0.000  0.000  0.000  0.000  0.000  0.031
tot    0.697  0.001  0.030  0.002  0.000  0.008  0.000  0.025  0.000  0.762
 
band     8 # energy  -13.92993637 # occ.  1.00000000
 
ion      s     py     pz     px    dxy    dyz    dz2    dxz  x2-y2    tot
    1  0.000  0.000  0.000  0.000  0.000  0.001  0.000  0.004  0.000  0.006
    2  0.000  0.000  0.004  0.000  0.000  0.000  0.000  0.000  0.000  0.004
    3  0.000  0.000  0.000  0.000  0.000  0.001  0.000  0.004  0.000  0.006
    4  0.000  0.000  0.000  0.000  0.000  0.001  0.000  0.004  0.000  0.006
    5  0.000  0.000  0.004  0.000  0.000  0.000  0.000  0.000  0.000  0.004
    6  0.000  0.000  0.004  0.000  0.000  0.000  0.000  0.000  0.000  0.004
    7  0.000  0.000  0.004  0.000  0.000  0.000  0.000  0.000  0.000  0.004
    8  0.000  0.000  0.004  0.000  0.000  0.000  0.000  0.000  0.000  0.004
    9  0.000  0.000  0.004  0.000  0.000  0.000  0.000  0.000  0.000  0.004
   10  0.000  0.000  0.000  0.000  0.000  0.001  0.000  0.004  0.000  0.006
   11  0.000  0.000  0.000  0.000  0.000  0.001  0.000  0.004  0.000  0.006
   12  0.000  0.000  0.000  0.000  0.000  0.001  0.000  0.004  0.000  0.006
   13  0.031  0.000  0.000  0.000  0.000  0.000  0.000  0.000  0.000  0.031
   14  0.031  0.000  0.000  0.000  0.000  0.000  0.000  0.000  0.000  0.031
   15  0.031  0.000  0.000  0.000  0.000  0.000  0.000  0.000  0.000  0.031
   16  0.027  0.000  0.000  0.000  0.000  0.000  0.000  0.000  0.000  0.027
   17  0.027  0.000  0.000  0.000  0.000  0.000  0.000  0.000  0.000  0.027
   18  0.031  0.000  0.000  0.000  0.000  0.000  0.000  0.000  0.000  0.031
   19  0.031  0.000  0.000  0.000  0.000  0.000  0.000  0.000  0.000  0.031
   20  0.031  0.000  0.000  0.000  0.000  0.000  0.000  0.000  0.000  0.031
   21  0.031  0.000  0.000  0.000  0.000  0.000  0.000  0.000  0.000  0.031
   22  0.031  0.000  0.000  0.000  0.000  0.000  0.000  0.000  0.000  0.031
   23  0.027  0.000  0.000  0.000  0.000  0.000  0.000  0.000  0.000  0.027
   24  0.027  0.000  0.000  0.000  0.000  0.000  0.000  0.000  0.000  0.027
   25  0.027  0.000  0.000  0.000  0.000  0.000  0.000  0.000  0.000  0.027
   26  0.027  0.000  0.000  0.000  0.000  0.000  0.000  0.000  0.000  0.027
   27  0.031  0.000  0.000  0.000  0.000  0.000  0.000  0.000  0.000  0.031
   28  0.031  0.000  0.000  0.000  0.000  0.000  0.000  0.000  0.000  0.031
   29  0.027  0.000  0.000  0.000  0.000  0.000  0.000  0.000  0.000  0.027
   30  0.031  0.000  0.000  0.000  0.000  0.000  0.000  0.000  0.000  0.031
   31  0.031  0.000  0.000  0.000  0.000  0.000  0.000  0.000  0.000  0.031
   32  0.027  0.000  0.000  0.000  0.000  0.000  0.000  0.000  0.000  0.027
   33  0.027  0.000  0.000  0.000  0.000  0.000  0.000  0.000  0.000  0.027
   34  0.027  0.000  0.000  0.000  0.000  0.000  0.000  0.000  0.000  0.027
   35  0.027  0.000  0.000  0.000  0.000  0.000  0.000  0.000  0.000  0.027
   36  0.027  0.000  0.000  0.000  0.000  0.000  0.000  0.000  0.000  0.027
tot    0.697  0.001  0.030  0.002  0.000  0.008  0.000  0.025  0.000  0.763
 
band     9 # energy  -13.89789748 # occ.  1.00000000
 
ion      s     py     pz     px    dxy    dyz    dz2    dxz  x2-y2    tot
    1  0.002  0.002  0.000  0.001  0.001  0.000  0.000  0.000  0.001  0.007
    2  0.000  0.000  0.000  0.002  0.002  0.000  0.000  0.000  0.001  0.005
    3  0.002  0.002  0.000  0.000  0.000  0.000  0.000  0.000  0.002  0.007
    4  0.010  0.000  0.000  0.000  0.000  0.000  0.000  0.000  0.000  0.011
    5  0.000  0.000  0.000  0.002  0.002  0.000  0.000  0.000  0.001  0.005
    6  0.000  0.003  0.000  0.000  0.000  0.000  0.000  0.000  0.003  0.005
    7  0.000  0.001  0.000  0.003  0.002  0.000  0.000  0.000  0.001  0.006
    8  0.000  0.003  0.000  0.000  0.000  0.000  0.000  0.000  0.003  0.005
    9  0.000  0.001  0.000  0.003  0.002  0.000  0.000  0.000  0.001  0.006
   10  0.002  0.002  0.000  0.000  0.000  0.000  0.000  0.000  0.002  0.007
   11  0.010  0.000  0.000  0.000  0.000  0.000  0.000  0.000  0.000  0.011
   12  0.002  0.002  0.000  0.001  0.001  0.000  0.000  0.000  0.001  0.007
   13  0.052  0.000  0.001  0.000  0.000  0.000  0.000  0.000  0.000  0.053
   14  0.013  0.000  0.000  0.000  0.000  0.000  0.000  0.000  0.000  0.013
   15  0.013  0.000  0.000  0.000  0.000  0.000  0.000  0.000  0.000  0.013
   16  0.015  0.000  0.000  0.000  0.000  0.000  0.000  0.000  0.000  0.016
   17  0.015  0.000  0.000  0.000  0.000  0.000  0.000  0.000  0.000  0.016
   18  0.013  0.000  0.000  0.000  0.000  0.000  0.000  0.000  0.000  0.013
   19  0.013  0.000  0.000  0.000  0.000  0.000  0.000  0.000  0.000  0.013
   20  0.052  0.000  0.001  0.000  0.000  0.000  0.000  0.000  0.000  0.053
   21  0.013  0.000  0.000  0.000  0.000  0.000  0.000  0.000  0.000  0.013
   22  0.013  0.000  0.000  0.000  0.000  0.000  0.000  0.000  0.000  0.013
   23  0.062  0.000  0.001  0.000  0.000  0.000  0.000  0.000  0.000  0.063
   24  0.062  0.000  0.001  0.000  0.000  0.000  0.000  0.000  0.000  0.063
   25  0.016  0.000  0.000  0.000  0.000  0.000  0.000  0.000  0.000  0.016
   26  0.016  0.000  0.000  0.000  0.000  0.000  0.000  0.000  0.000  0.016
   27  0.052  0.000  0.001  0.000  0.000  0.000  0.000  0.000  0.000  0.053
   28  0.052  0.000  0.001  0.000  0.000  0.000  0.000  0.000  0.000  0.053
   29  0.015  0.000  0.000  0.000  0.000  0.000  0.000  0.000  0.000  0.016
   30  0.013  0.000  0.000  0.000  0.000  0.000  0.000  0.000  0.000  0.013
   31  0.013  0.000  0.000  0.000  0.000  0.000  0.000  0.000  0.000  0.013
   32  0.015  0.000  0.000  0.000  0.000  0.000  0.000  0.000  0.000  0.016
   33  0.016  0.000  0.000  0.000  0.000  0.000  0.000  0.000  0.000  0.016
   34  0.016  0.000  0.000  0.000  0.000  0.000  0.000  0.000  0.000  0.016
   35  0.062  0.000  0.001  0.000  0.000  0.000  0.000  0.000  0.000  0.063
   36  0.062  0.000  0.001  0.000  0.000  0.000  0.000  0.000  0.000  0.063
tot    0.714  0.018  0.008  0.014  0.009  0.000  0.001  0.000  0.014  0.779
 
band    10 # energy  -13.89774287 # occ.  1.00000000
 
ion      s     py     pz     px    dxy    dyz    dz2    dxz  x2-y2    tot
    1  0.007  0.001  0.000  0.000  0.000  0.000  0.000  0.000  0.001  0.010
    2  0.000  0.002  0.000  0.001  0.000  0.000  0.000  0.000  0.002  0.006
    3  0.007  0.000  0.000  0.001  0.001  0.000  0.000  0.000  0.000  0.010
    4  0.000  0.003  0.000  0.001  0.001  0.000  0.000  0.000  0.002  0.006
    5  0.000  0.002  0.000  0.001  0.000  0.000  0.000  0.000  0.002  0.006
    6  0.000  0.000  0.000  0.003  0.002  0.000  0.000  0.000  0.000  0.006
    7  0.000  0.002  0.000  0.001  0.001  0.000  0.000  0.000  0.002  0.005
    8  0.000  0.000  0.000  0.003  0.002  0.000  0.000  0.000  0.000  0.006
    9  0.000  0.002  0.000  0.001  0.001  0.000  0.000  0.000  0.002  0.005
   10  0.007  0.000  0.000  0.001  0.001  0.000  0.000  0.000  0.000  0.010
   11  0.000  0.003  0.000  0.001  0.001  0.000  0.000  0.000  0.002  0.006
   12  0.007  0.001  0.000  0.000  0.000  0.000  0.000  0.000  0.001  0.010
   13  0.000  0.000  0.000  0.000  0.000  0.000  0.000  0.000  0.000  0.000
   14  0.039  0.000  0.000  0.000  0.000  0.000  0.000  0.000  0.000  0.039
   15  0.039  0.000  0.000  0.000  0.000  0.000  0.000  0.000  0.000  0.039
   16  0.047  0.000  0.001  0.000  0.000  0.000  0.000  0.000  0.000  0.047
   17  0.047  0.000  0.001  0.000  0.000  0.000  0.000  0.000  0.000  0.047
   18  0.039  0.000  0.000  0.000  0.000  0.000  0.000  0.000  0.000  0.040
   19  0.039  0.000  0.000  0.000  0.000  0.000  0.000  0.000  0.000  0.040
   20  0.000  0.000  0.000  0.000  0.000  0.000  0.000  0.000  0.000  0.000
   21  0.039  0.000  0.000  0.000  0.000  0.000  0.000  0.000  0.000  0.039
   22  0.039  0.000  0.000  0.000  0.000  0.000  0.000  0.000  0.000  0.039
   23  0.000  0.000  0.000  0.000  0.000  0.000  0.000  0.000  0.000  0.000
   24  0.000  0.000  0.000  0.000  0.000  0.000  0.000  0.000  0.000  0.000
   25  0.047  0.000  0.001  0.000  0.000  0.000  0.000  0.000  0.000  0.047
   26  0.047  0.000  0.001  0.000  0.000  0.000  0.000  0.000  0.000  0.047
   27  0.000  0.000  0.000  0.000  0.000  0.000  0.000  0.000  0.000  0.000
   28  0.000  0.000  0.000  0.000  0.000  0.000  0.000  0.000  0.000  0.000
   29  0.047  0.000  0.001  0.000  0.000  0.000  0.000  0.000  0.000  0.047
   30  0.039  0.000  0.000  0.000  0.000  0.000  0.000  0.000  0.000  0.040
   31  0.039  0.000  0.000  0.000  0.000  0.000  0.000  0.000  0.000  0.040
   32  0.047  0.000  0.001  0.000  0.000  0.000  0.000  0.000  0.000  0.047
   33  0.047  0.000  0.001  0.000  0.000  0.000  0.000  0.000  0.000  0.047
   34  0.047  0.000  0.001  0.000  0.000  0.000  0.000  0.000  0.000  0.047
   35  0.000  0.000  0.000  0.000  0.000  0.000  0.000  0.000  0.000  0.000
   36  0.000  0.000  0.000  0.000  0.000  0.000  0.000  0.000  0.000  0.000
tot    0.714  0.018  0.008  0.015  0.009  0.000  0.001  0.000  0.014  0.779
 
band    11 # energy  -13.89742939 # occ.  1.00000000
 
ion      s     py     pz     px    dxy    dyz    dz2    dxz  x2-y2    tot
    1  0.000  0.003  0.000  0.000  0.000  0.000  0.000  0.000  0.003  0.005
    2  0.002  0.002  0.000  0.000  0.000  0.000  0.000  0.000  0.002  0.007
    3  0.000  0.000  0.000  0.002  0.002  0.000  0.000  0.000  0.001  0.005
    4  0.000  0.001  0.000  0.003  0.002  0.000  0.000  0.000  0.001  0.006
    5  0.002  0.002  0.000  0.000  0.000  0.000  0.000  0.000  0.002  0.007
    6  0.002  0.002  0.000  0.001  0.001  0.000  0.000  0.000  0.001  0.007
    7  0.010  0.000  0.000  0.000  0.000  0.000  0.000  0.000  0.000  0.011
    8  0.002  0.002  0.000  0.001  0.001  0.000  0.000  0.000  0.001  0.007
    9  0.010  0.000  0.000  0.000  0.000  0.000  0.000  0.000  0.000  0.011
   10  0.000  0.000  0.000  0.002  0.002  0.000  0.000  0.000  0.001  0.005
   11  0.000  0.001  0.000  0.003  0.002  0.000  0.000  0.000  0.001  0.006
   12  0.000  0.003  0.000  0.000  0.000  0.000  0.000  0.000  0.003  0.005
   13  0.062  0.000  0.001  0.000  0.000  0.000  0.000  0.000  0.000  0.063
   14  0.016  0.000  0.000  0.000  0.000  0.000  0.000  0.000  0.000  0.016
   15  0.015  0.000  0.000  0.000  0.000  0.000  0.000  0.000  0.000  0.016
   16  0.013  0.000  0.000  0.000  0.000  0.000  0.000  0.000  0.000  0.013
   17  0.013  0.000  0.000  0.000  0.000  0.000  0.000  0.000  0.000  0.013
   18  0.015  0.000  0.000  0.000  0.000  0.000  0.000  0.000  0.000  0.016
   19  0.016  0.000  0.000  0.000  0.000  0.000  0.000  0.000  0.000  0.016
   20  0.062  0.000  0.001  0.000  0.000  0.000  0.000  0.000  0.000  0.063
   21  0.016  0.000  0.000  0.000  0.000  0.000  0.000  0.000  0.000  0.016
   22  0.015  0.000  0.000  0.000  0.000  0.000  0.000  0.000  0.000  0.016
   23  0.052  0.000  0.001  0.000  0.000  0.000  0.000  0.000  0.000  0.053
   24  0.052  0.000  0.001  0.000  0.000  0.000  0.000  0.000  0.000  0.053
   25  0.013  0.000  0.000  0.000  0.000  0.000  0.000  0.000  0.000  0.013
   26  0.013  0.000  0.000  0.000  0.000  0.000  0.000  0.000  0.000  0.013
   27  0.062  0.000  0.001  0.000  0.000  0.000  0.000  0.000  0.000  0.063
   28  0.062  0.000  0.001  0.000  0.000  0.000  0.000  0.000  0.000  0.063
   29  0.013  0.000  0.000  0.000  0.000  0.000  0.000  0.000  0.000  0.013
   30  0.016  0.000  0.000  0.000  0.000  0.000  0.000  0.000  0.000  0.016
   31  0.015  0.000  0.000  0.000  0.000  0.000  0.000  0.000  0.000  0.016
   32  0.013  0.000  0.000  0.000  0.000  0.000  0.000  0.000  0.000  0.013
   33  0.013  0.000  0.000  0.000  0.000  0.000  0.000  0.000  0.000  0.013
   34  0.013  0.000  0.000  0.000  0.000  0.000  0.000  0.000  0.000  0.013
   35  0.052  0.000  0.001  0.000  0.000  0.000  0.000  0.000  0.000  0.053
   36  0.052  0.000  0.001  0.000  0.000  0.000  0.000  0.000  0.000  0.053
tot    0.714  0.018  0.008  0.014  0.009  0.000  0.001  0.000  0.014  0.779
 
band    12 # energy  -13.89727313 # occ.  1.00000000
 
ion      s     py     pz     px    dxy    dyz    dz2    dxz  x2-y2    tot
    1  0.000  0.000  0.000  0.003  0.002  0.000  0.000  0.000  0.000  0.006
    2  0.007  0.000  0.000  0.001  0.001  0.000  0.000  0.000  0.000  0.010
    3  0.000  0.002  0.000  0.001  0.000  0.000  0.000  0.000  0.002  0.006
    4  0.000  0.002  0.000  0.001  0.001  0.000  0.000  0.000  0.002  0.005
    5  0.007  0.000  0.000  0.001  0.001  0.000  0.000  0.000  0.000  0.010
    6  0.007  0.001  0.000  0.000  0.000  0.000  0.000  0.000  0.001  0.010
    7  0.000  0.003  0.000  0.001  0.001  0.000  0.000  0.000  0.002  0.006
    8  0.007  0.001  0.000  0.000  0.000  0.000  0.000  0.000  0.001  0.010
    9  0.000  0.003  0.000  0.001  0.001  0.000  0.000  0.000  0.002  0.006
   10  0.000  0.002  0.000  0.001  0.000  0.000  0.000  0.000  0.002  0.006
   11  0.000  0.002  0.000  0.001  0.001  0.000  0.000  0.000  0.002  0.005
   12  0.000  0.000  0.000  0.003  0.002  0.000  0.000  0.000  0.000  0.006
   13  0.000  0.000  0.000  0.000  0.000  0.000  0.000  0.000  0.000  0.000
   14  0.047  0.000  0.001  0.000  0.000  0.000  0.000  0.000  0.000  0.047
   15  0.047  0.000  0.001  0.000  0.000  0.000  0.000  0.000  0.000  0.047
   16  0.039  0.000  0.000  0.000  0.000  0.000  0.000  0.000  0.000  0.040
   17  0.039  0.000  0.000  0.000  0.000  0.000  0.000  0.000  0.000  0.040
   18  0.047  0.000  0.001  0.000  0.000  0.000  0.000  0.000  0.000  0.047
   19  0.047  0.000  0.001  0.000  0.000  0.000  0.000  0.000  0.000  0.047
   20  0.000  0.000  0.000  0.000  0.000  0.000  0.000  0.000  0.000  0.000
   21  0.047  0.000  0.001  0.000  0.000  0.000  0.000  0.000  0.000  0.047
   22  0.047  0.000  0.001  0.000  0.000  0.000  0.000  0.000  0.000  0.047
   23  0.000  0.000  0.000  0.000  0.000  0.000  0.000  0.000  0.000  0.000
   24  0.000  0.000  0.000  0.000  0.000  0.000  0.000  0.000  0.000  0.000
   25  0.039  0.000  0.000  0.000  0.000  0.000  0.000  0.000  0.000  0.040
   26  0.039  0.000  0.000  0.000  0.000  0.000  0.000  0.000  0.000  0.040
   27  0.000  0.000  0.000  0.000  0.000  0.000  0.000  0.000  0.000  0.000
   28  0.000  0.000  0.000  0.000  0.000  0.000  0.000  0.000  0.000  0.000
   29  0.039  0.000  0.000  0.000  0.000  0.000  0.000  0.000  0.000  0.040
   30  0.047  0.000  0.001  0.000  0.000  0.000  0.000  0.000  0.000  0.047
   31  0.047  0.000  0.001  0.000  0.000  0.000  0.000  0.000  0.000  0.047
   32  0.039  0.000  0.000  0.000  0.000  0.000  0.000  0.000  0.000  0.040
   33  0.039  0.000  0.000  0.000  0.000  0.000  0.000  0.000  0.000  0.040
   34  0.039  0.000  0.000  0.000  0.000  0.000  0.000  0.000  0.000  0.040
   35  0.000  0.000  0.000  0.000  0.000  0.000  0.000  0.000  0.000  0.000
   36  0.000  0.000  0.000  0.000  0.000  0.000  0.000  0.000  0.000  0.000
tot    0.714  0.018  0.008  0.015  0.009  0.000  0.001  0.000  0.014  0.779
 
band    13 # energy  -13.80857409 # occ.  1.00000000
 
ion      s     py     pz     px    dxy    dyz    dz2    dxz  x2-y2    tot
    1  0.000  0.000  0.001  0.000  0.000  0.003  0.000  0.002  0.000  0.006
    2  0.000  0.000  0.001  0.000  0.000  0.004  0.000  0.001  0.000  0.006
    3  0.000  0.000  0.001  0.000  0.000  0.004  0.000  0.001  0.000  0.006
    4  0.000  0.000  0.004  0.000  0.000  0.000  0.000  0.000  0.000  0.004
    5  0.000  0.000  0.001  0.000  0.000  0.004  0.000  0.001  0.000  0.006
    6  0.000  0.000  0.001  0.000  0.000  0.003  0.000  0.002  0.000  0.006
    7  0.000  0.000  0.004  0.000  0.000  0.000  0.000  0.000  0.000  0.004
    8  0.000  0.000  0.001  0.000  0.000  0.003  0.000  0.002  0.000  0.006
    9  0.000  0.000  0.004  0.000  0.000  0.000  0.000  0.000  0.000  0.004
   10  0.000  0.000  0.001  0.000  0.000  0.004  0.000  0.001  0.000  0.006
   11  0.000  0.000  0.004  0.000  0.000  0.000  0.000  0.000  0.000  0.004
   12  0.000  0.000  0.001  0.000  0.000  0.003  0.000  0.002  0.000  0.006
   13  0.058  0.000  0.000  0.000  0.000  0.000  0.000  0.000  0.000  0.059
   14  0.015  0.000  0.000  0.000  0.000  0.000  0.000  0.000  0.000  0.015
   15  0.015  0.000  0.000  0.000  0.000  0.000  0.000  0.000  0.000  0.015
   16  0.015  0.000  0.000  0.000  0.000  0.000  0.000  0.000  0.000  0.015
   17  0.015  0.000  0.000  0.000  0.000  0.000  0.000  0.000  0.000  0.015
   18  0.015  0.000  0.000  0.000  0.000  0.000  0.000  0.000  0.000  0.015
   19  0.015  0.000  0.000  0.000  0.000  0.000  0.000  0.000  0.000  0.015
   20  0.058  0.000  0.000  0.000  0.000  0.000  0.000  0.000  0.000  0.059
   21  0.015  0.000  0.000  0.000  0.000  0.000  0.000  0.000  0.000  0.015
   22  0.015  0.000  0.000  0.000  0.000  0.000  0.000  0.000  0.000  0.015
   23  0.058  0.000  0.000  0.000  0.000  0.000  0.000  0.000  0.000  0.059
   24  0.059  0.000  0.000  0.000  0.000  0.000  0.000  0.000  0.000  0.059
   25  0.015  0.000  0.000  0.000  0.000  0.000  0.000  0.000  0.000  0.015
   26  0.015  0.000  0.000  0.000  0.000  0.000  0.000  0.000  0.000  0.015
   27  0.058  0.000  0.000  0.000  0.000  0.000  0.000  0.000  0.000  0.059
   28  0.058  0.000  0.000  0.000  0.000  0.000  0.000  0.000  0.000  0.059
   29  0.015  0.000  0.000  0.000  0.000  0.000  0.000  0.000  0.000  0.015
   30  0.015  0.000  0.000  0.000  0.000  0.000  0.000  0.000  0.000  0.015
   31  0.015  0.000  0.000  0.000  0.000  0.000  0.000  0.000  0.000  0.015
   32  0.015  0.000  0.000  0.000  0.000  0.000  0.000  0.000  0.000  0.015
   33  0.015  0.000  0.000  0.000  0.000  0.000  0.000  0.000  0.000  0.015
   34  0.015  0.000  0.000  0.000  0.000  0.000  0.000  0.000  0.000  0.015
   35  0.059  0.000  0.000  0.000  0.000  0.000  0.000  0.000  0.000  0.059
   36  0.058  0.000  0.000  0.000  0.000  0.000  0.000  0.000  0.000  0.059
tot    0.702  0.002  0.026  0.001  0.000  0.031  0.000  0.012  0.000  0.774
 
band    14 # energy  -13.80845873 # occ.  1.00000000
 
ion      s     py     pz     px    dxy    dyz    dz2    dxz  x2-y2    tot
    1  0.000  0.000  0.003  0.000  0.000  0.002  0.000  0.000  0.000  0.005
    2  0.000  0.000  0.003  0.000  0.000  0.001  0.000  0.001  0.000  0.005
    3  0.000  0.000  0.003  0.000  0.000  0.001  0.000  0.001  0.000  0.005
    4  0.000  0.000  0.000  0.000  0.000  0.005  0.000  0.002  0.000  0.007
    5  0.000  0.000  0.003  0.000  0.000  0.001  0.000  0.001  0.000  0.005
    6  0.000  0.000  0.003  0.000  0.000  0.002  0.000  0.000  0.000  0.005
    7  0.000  0.000  0.000  0.000  0.000  0.005  0.000  0.002  0.000  0.007
    8  0.000  0.000  0.003  0.000  0.000  0.002  0.000  0.000  0.000  0.005
    9  0.000  0.000  0.000  0.000  0.000  0.005  0.000  0.002  0.000  0.007
   10  0.000  0.000  0.003  0.000  0.000  0.001  0.000  0.001  0.000  0.005
   11  0.000  0.000  0.000  0.000  0.000  0.005  0.000  0.002  0.000  0.007
   12  0.000  0.000  0.003  0.000  0.000  0.002  0.000  0.000  0.000  0.005
   13  0.000  0.000  0.000  0.000  0.000  0.000  0.000  0.000  0.000  0.000
   14  0.044  0.000  0.000  0.000  0.000  0.000  0.000  0.000  0.000  0.044
   15  0.044  0.000  0.000  0.000  0.000  0.000  0.000  0.000  0.000  0.044
   16  0.044  0.000  0.000  0.000  0.000  0.000  0.000  0.000  0.000  0.044
   17  0.044  0.000  0.000  0.000  0.000  0.000  0.000  0.000  0.000  0.044
   18  0.044  0.000  0.000  0.000  0.000  0.000  0.000  0.000  0.000  0.044
   19  0.044  0.000  0.000  0.000  0.000  0.000  0.000  0.000  0.000  0.044
   20  0.000  0.000  0.000  0.000  0.000  0.000  0.000  0.000  0.000  0.000
   21  0.044  0.000  0.000  0.000  0.000  0.000  0.000  0.000  0.000  0.044
   22  0.044  0.000  0.000  0.000  0.000  0.000  0.000  0.000  0.000  0.044
   23  0.000  0.000  0.000  0.000  0.000  0.000  0.000  0.000  0.000  0.000
   24  0.000  0.000  0.000  0.000  0.000  0.000  0.000  0.000  0.000  0.000
   25  0.044  0.000  0.000  0.000  0.000  0.000  0.000  0.000  0.000  0.044
   26  0.044  0.000  0.000  0.000  0.000  0.000  0.000  0.000  0.000  0.044
   27  0.000  0.000  0.000  0.000  0.000  0.000  0.000  0.000  0.000  0.000
   28  0.000  0.000  0.000  0.000  0.000  0.000  0.000  0.000  0.000  0.000
   29  0.044  0.000  0.000  0.000  0.000  0.000  0.000  0.000  0.000  0.044
   30  0.044  0.000  0.000  0.000  0.000  0.000  0.000  0.000  0.000  0.044
   31  0.044  0.000  0.000  0.000  0.000  0.000  0.000  0.000  0.000  0.044
   32  0.044  0.000  0.000  0.000  0.000  0.000  0.000  0.000  0.000  0.044
   33  0.044  0.000  0.000  0.000  0.000  0.000  0.000  0.000  0.000  0.044
   34  0.044  0.000  0.000  0.000  0.000  0.000  0.000  0.000  0.000  0.044
   35  0.000  0.000  0.000  0.000  0.000  0.000  0.000  0.000  0.000  0.000
   36  0.000  0.000  0.000  0.000  0.000  0.000  0.000  0.000  0.000  0.000
tot    0.702  0.002  0.026  0.001  0.000  0.031  0.000  0.012  0.000  0.774
 
band    15 # energy  -13.62499861 # occ.  1.00000000
 
ion      s     py     pz     px    dxy    dyz    dz2    dxz  x2-y2    tot
    1  0.001  0.001  0.000  0.002  0.002  0.000  0.000  0.000  0.001  0.007
    2  0.001  0.001  0.000  0.002  0.002  0.000  0.000  0.000  0.001  0.007
    3  0.001  0.001  0.000  0.002  0.002  0.000  0.000  0.000  0.001  0.007
    4  0.001  0.001  0.000  0.002  0.002  0.000  0.000  0.000  0.001  0.007
    5  0.001  0.001  0.000  0.002  0.002  0.000  0.000  0.000  0.001  0.007
    6  0.001  0.001  0.000  0.002  0.002  0.000  0.000  0.000  0.001  0.007
    7  0.001  0.001  0.000  0.002  0.002  0.000  0.000  0.000  0.001  0.007
    8  0.001  0.001  0.000  0.002  0.002  0.000  0.000  0.000  0.001  0.007
    9  0.001  0.001  0.000  0.002  0.002  0.000  0.000  0.000  0.001  0.007
   10  0.001  0.001  0.000  0.002  0.002  0.000  0.000  0.000  0.001  0.007
   11  0.001  0.001  0.000  0.002  0.002  0.000  0.000  0.000  0.001  0.007
   12  0.001  0.001  0.000  0.002  0.002  0.000  0.000  0.000  0.001  0.007
   13  0.029  0.000  0.000  0.000  0.000  0.000  0.000  0.000  0.000  0.030
   14  0.029  0.000  0.000  0.000  0.000  0.000  0.000  0.000  0.000  0.030
   15  0.029  0.000  0.000  0.000  0.000  0.000  0.000  0.000  0.000  0.030
   16  0.029  0.000  0.000  0.000  0.000  0.000  0.000  0.000  0.000  0.030
   17  0.029  0.000  0.000  0.000  0.000  0.000  0.000  0.000  0.000  0.030
   18  0.029  0.000  0.000  0.000  0.000  0.000  0.000  0.000  0.000  0.030
   19  0.029  0.000  0.000  0.000  0.000  0.000  0.000  0.000  0.000  0.030
   20  0.029  0.000  0.000  0.000  0.000  0.000  0.000  0.000  0.000  0.030
   21  0.029  0.000  0.000  0.000  0.000  0.000  0.000  0.000  0.000  0.030
   22  0.029  0.000  0.000  0.000  0.000  0.000  0.000  0.000  0.000  0.030
   23  0.029  0.000  0.000  0.000  0.000  0.000  0.000  0.000  0.000  0.030
   24  0.029  0.000  0.000  0.000  0.000  0.000  0.000  0.000  0.000  0.030
   25  0.029  0.000  0.000  0.000  0.000  0.000  0.000  0.000  0.000  0.030
   26  0.029  0.000  0.000  0.000  0.000  0.000  0.000  0.000  0.000  0.030
   27  0.029  0.000  0.000  0.000  0.000  0.000  0.000  0.000  0.000  0.030
   28  0.029  0.000  0.000  0.000  0.000  0.000  0.000  0.000  0.000  0.030
   29  0.029  0.000  0.000  0.000  0.000  0.000  0.000  0.000  0.000  0.030
   30  0.029  0.000  0.000  0.000  0.000  0.000  0.000  0.000  0.000  0.030
   31  0.029  0.000  0.000  0.000  0.000  0.000  0.000  0.000  0.000  0.030
   32  0.029  0.000  0.000  0.000  0.000  0.000  0.000  0.000  0.000  0.030
   33  0.029  0.000  0.000  0.000  0.000  0.000  0.000  0.000  0.000  0.030
   34  0.029  0.000  0.000  0.000  0.000  0.000  0.000  0.000  0.000  0.030
   35  0.029  0.000  0.000  0.000  0.000  0.000  0.000  0.000  0.000  0.030
   36  0.029  0.000  0.000  0.000  0.000  0.000  0.000  0.000  0.000  0.030
tot    0.722  0.009  0.008  0.026  0.024  0.000  0.001  0.000  0.008  0.798
 
band    16 # energy  -13.53739478 # occ.  1.00000000
 
ion      s     py     pz     px    dxy    dyz    dz2    dxz  x2-y2    tot
    1  0.000  0.000  0.001  0.000  0.000  0.006  0.000  0.002  0.000  0.010
    2  0.000  0.000  0.000  0.000  0.000  0.000  0.000  0.004  0.000  0.004
    3  0.000  0.000  0.001  0.000  0.000  0.007  0.000  0.002  0.000  0.010
    4  0.000  0.000  0.004  0.000  0.000  0.000  0.000  0.000  0.000  0.004
    5  0.000  0.000  0.000  0.000  0.000  0.000  0.000  0.004  0.000  0.004
    6  0.000  0.000  0.000  0.000  0.000  0.004  0.000  0.000  0.000  0.004
    7  0.000  0.000  0.000  0.000  0.000  0.002  0.000  0.006  0.000  0.008
    8  0.000  0.000  0.000  0.000  0.000  0.004  0.000  0.000  0.000  0.004
    9  0.000  0.000  0.000  0.000  0.000  0.002  0.000  0.006  0.000  0.008
   10  0.000  0.000  0.001  0.000  0.000  0.007  0.000  0.002  0.000  0.010
   11  0.000  0.000  0.004  0.000  0.000  0.000  0.000  0.000  0.000  0.004
   12  0.000  0.000  0.001  0.000  0.000  0.006  0.000  0.002  0.000  0.010
   13  0.028  0.000  0.000  0.000  0.000  0.000  0.000  0.000  0.000  0.028
   14  0.007  0.000  0.000  0.000  0.000  0.000  0.000  0.000  0.000  0.007
   15  0.007  0.000  0.000  0.000  0.000  0.000  0.000  0.000  0.000  0.007
   16  0.023  0.000  0.000  0.000  0.000  0.000  0.000  0.000  0.000  0.023
   17  0.023  0.000  0.000  0.000  0.000  0.000  0.000  0.000  0.000  0.023
   18  0.007  0.000  0.000  0.000  0.000  0.000  0.000  0.000  0.000  0.007
   19  0.007  0.000  0.000  0.000  0.000  0.000  0.000  0.000  0.000  0.007
   20  0.028  0.000  0.000  0.000  0.000  0.000  0.000  0.000  0.000  0.028
   21  0.007  0.000  0.000  0.000  0.000  0.000  0.000  0.000  0.000  0.007
   22  0.007  0.000  0.000  0.000  0.000  0.000  0.000  0.000  0.000  0.007
   23  0.092  0.000  0.000  0.000  0.000  0.000  0.000  0.000  0.000  0.092
   24  0.092  0.000  0.000  0.000  0.000  0.000  0.000  0.000  0.000  0.092
   25  0.023  0.000  0.000  0.000  0.000  0.000  0.000  0.000  0.000  0.023
   26  0.023  0.000  0.000  0.000  0.000  0.000  0.000  0.000  0.000  0.023
   27  0.028  0.000  0.000  0.000  0.000  0.000  0.000  0.000  0.000  0.028
   28  0.028  0.000  0.000  0.000  0.000  0.000  0.000  0.000  0.000  0.028
   29  0.023  0.000  0.000  0.000  0.000  0.000  0.000  0.000  0.000  0.023
   30  0.007  0.000  0.000  0.000  0.000  0.000  0.000  0.000  0.000  0.007
   31  0.007  0.000  0.000  0.000  0.000  0.000  0.000  0.000  0.000  0.007
   32  0.023  0.000  0.000  0.000  0.000  0.000  0.000  0.000  0.000  0.023
   33  0.023  0.000  0.000  0.000  0.000  0.000  0.000  0.000  0.000  0.023
   34  0.023  0.000  0.000  0.000  0.000  0.000  0.000  0.000  0.000  0.023
   35  0.092  0.000  0.000  0.000  0.000  0.000  0.000  0.000  0.000  0.092
   36  0.092  0.000  0.000  0.000  0.000  0.000  0.000  0.000  0.000  0.092
tot    0.716  0.001  0.015  0.001  0.000  0.038  0.000  0.029  0.000  0.800
 
band    17 # energy  -13.53735676 # occ.  1.00000000
 
ion      s     py     pz     px    dxy    dyz    dz2    dxz  x2-y2    tot
    1  0.000  0.000  0.003  0.000  0.000  0.002  0.000  0.001  0.000  0.006
    2  0.000  0.000  0.000  0.000  0.000  0.004  0.000  0.003  0.000  0.007
    3  0.000  0.000  0.003  0.000  0.000  0.002  0.000  0.001  0.000  0.006
    4  0.000  0.000  0.000  0.000  0.000  0.009  0.000  0.003  0.000  0.012
    5  0.000  0.000  0.000  0.000  0.000  0.004  0.000  0.003  0.000  0.007
    6  0.000  0.000  0.000  0.000  0.000  0.000  0.000  0.006  0.000  0.007
    7  0.000  0.000  0.000  0.000  0.000  0.002  0.000  0.001  0.000  0.003
    8  0.000  0.000  0.000  0.000  0.000  0.000  0.000  0.006  0.000  0.007
    9  0.000  0.000  0.000  0.000  0.000  0.002  0.000  0.001  0.000  0.003
   10  0.000  0.000  0.003  0.000  0.000  0.002  0.000  0.001  0.000  0.006
   11  0.000  0.000  0.000  0.000  0.000  0.009  0.000  0.003  0.000  0.012
   12  0.000  0.000  0.003  0.000  0.000  0.002  0.000  0.001  0.000  0.006
   13  0.000  0.000  0.000  0.000  0.000  0.000  0.000  0.000  0.000  0.000
   14  0.021  0.000  0.000  0.000  0.000  0.000  0.000  0.000  0.000  0.021
   15  0.021  0.000  0.000  0.000  0.000  0.000  0.000  0.000  0.000  0.021
   16  0.069  0.000  0.000  0.000  0.000  0.000  0.000  0.000  0.000  0.069
   17  0.069  0.000  0.000  0.000  0.000  0.000  0.000  0.000  0.000  0.069
   18  0.021  0.000  0.000  0.000  0.000  0.000  0.000  0.000  0.000  0.021
   19  0.021  0.000  0.000  0.000  0.000  0.000  0.000  0.000  0.000  0.021
   20  0.000  0.000  0.000  0.000  0.000  0.000  0.000  0.000  0.000  0.000
   21  0.021  0.000  0.000  0.000  0.000  0.000  0.000  0.000  0.000  0.021
   22  0.021  0.000  0.000  0.000  0.000  0.000  0.000  0.000  0.000  0.021
   23  0.000  0.000  0.000  0.000  0.000  0.000  0.000  0.000  0.000  0.000
   24  0.000  0.000  0.000  0.000  0.000  0.000  0.000  0.000  0.000  0.000
   25  0.069  0.000  0.000  0.000  0.000  0.000  0.000  0.000  0.000  0.069
   26  0.069  0.000  0.000  0.000  0.000  0.000  0.000  0.000  0.000  0.069
   27  0.000  0.000  0.000  0.000  0.000  0.000  0.000  0.000  0.000  0.000
   28  0.000  0.000  0.000  0.000  0.000  0.000  0.000  0.000  0.000  0.000
   29  0.069  0.000  0.000  0.000  0.000  0.000  0.000  0.000  0.000  0.069
   30  0.021  0.000  0.000  0.000  0.000  0.000  0.000  0.000  0.000  0.021
   31  0.021  0.000  0.000  0.000  0.000  0.000  0.000  0.000  0.000  0.021
   32  0.069  0.000  0.000  0.000  0.000  0.000  0.000  0.000  0.000  0.069
   33  0.069  0.000  0.000  0.000  0.000  0.000  0.000  0.000  0.000  0.069
   34  0.069  0.000  0.000  0.000  0.000  0.000  0.000  0.000  0.000  0.069
   35  0.000  0.000  0.000  0.000  0.000  0.000  0.000  0.000  0.000  0.000
   36  0.000  0.000  0.000  0.000  0.000  0.000  0.000  0.000  0.000  0.000
tot    0.716  0.001  0.015  0.001  0.000  0.038  0.000  0.029  0.000  0.800
 
band    18 # energy  -13.53692621 # occ.  1.00000000
 
ion      s     py     pz     px    dxy    dyz    dz2    dxz  x2-y2    tot
    1  0.000  0.000  0.000  0.000  0.000  0.004  0.000  0.000  0.000  0.004
    2  0.000  0.000  0.001  0.000  0.000  0.007  0.000  0.002  0.000  0.010
    3  0.000  0.000  0.000  0.000  0.000  0.000  0.000  0.004  0.000  0.004
    4  0.000  0.000  0.000  0.000  0.000  0.002  0.000  0.006  0.000  0.008
    5  0.000  0.000  0.001  0.000  0.000  0.007  0.000  0.002  0.000  0.010
    6  0.000  0.000  0.001  0.000  0.000  0.006  0.000  0.002  0.000  0.010
    7  0.000  0.000  0.004  0.000  0.000  0.000  0.000  0.000  0.000  0.004
    8  0.000  0.000  0.001  0.000  0.000  0.006  0.000  0.002  0.000  0.010
    9  0.000  0.000  0.004  0.000  0.000  0.000  0.000  0.000  0.000  0.004
   10  0.000  0.000  0.000  0.000  0.000  0.000  0.000  0.004  0.000  0.004
   11  0.000  0.000  0.000  0.000  0.000  0.002  0.000  0.006  0.000  0.008
   12  0.000  0.000  0.000  0.000  0.000  0.004  0.000  0.000  0.000  0.004
   13  0.092  0.000  0.000  0.000  0.000  0.000  0.000  0.000  0.000  0.092
   14  0.023  0.000  0.000  0.000  0.000  0.000  0.000  0.000  0.000  0.023
   15  0.023  0.000  0.000  0.000  0.000  0.000  0.000  0.000  0.000  0.023
   16  0.007  0.000  0.000  0.000  0.000  0.000  0.000  0.000  0.000  0.007
   17  0.007  0.000  0.000  0.000  0.000  0.000  0.000  0.000  0.000  0.007
   18  0.023  0.000  0.000  0.000  0.000  0.000  0.000  0.000  0.000  0.023
   19  0.023  0.000  0.000  0.000  0.000  0.000  0.000  0.000  0.000  0.023
   20  0.092  0.000  0.000  0.000  0.000  0.000  0.000  0.000  0.000  0.092
   21  0.023  0.000  0.000  0.000  0.000  0.000  0.000  0.000  0.000  0.023
   22  0.023  0.000  0.000  0.000  0.000  0.000  0.000  0.000  0.000  0.023
   23  0.028  0.000  0.000  0.000  0.000  0.000  0.000  0.000  0.000  0.028
   24  0.028  0.000  0.000  0.000  0.000  0.000  0.000  0.000  0.000  0.028
   25  0.007  0.000  0.000  0.000  0.000  0.000  0.000  0.000  0.000  0.007
   26  0.007  0.000  0.000  0.000  0.000  0.000  0.000  0.000  0.000  0.007
   27  0.092  0.000  0.000  0.000  0.000  0.000  0.000  0.000  0.000  0.092
   28  0.092  0.000  0.000  0.000  0.000  0.000  0.000  0.000  0.000  0.092
   29  0.007  0.000  0.000  0.000  0.000  0.000  0.000  0.000  0.000  0.007
   30  0.023  0.000  0.000  0.000  0.000  0.000  0.000  0.000  0.000  0.023
   31  0.023  0.000  0.000  0.000  0.000  0.000  0.000  0.000  0.000  0.023
   32  0.007  0.000  0.000  0.000  0.000  0.000  0.000  0.000  0.000  0.007
   33  0.007  0.000  0.000  0.000  0.000  0.000  0.000  0.000  0.000  0.007
   34  0.007  0.000  0.000  0.000  0.000  0.000  0.000  0.000  0.000  0.007
   35  0.028  0.000  0.000  0.000  0.000  0.000  0.000  0.000  0.000  0.028
   36  0.028  0.000  0.000  0.000  0.000  0.000  0.000  0.000  0.000  0.028
tot    0.716  0.001  0.015  0.001  0.000  0.038  0.000  0.029  0.000  0.800
 
band    19 # energy  -13.53688824 # occ.  1.00000000
 
ion      s     py     pz     px    dxy    dyz    dz2    dxz  x2-y2    tot
    1  0.000  0.000  0.000  0.000  0.000  0.000  0.000  0.006  0.000  0.007
    2  0.000  0.000  0.003  0.000  0.000  0.002  0.000  0.001  0.000  0.006
    3  0.000  0.000  0.000  0.000  0.000  0.004  0.000  0.003  0.000  0.007
    4  0.000  0.000  0.000  0.000  0.000  0.002  0.000  0.001  0.000  0.003
    5  0.000  0.000  0.003  0.000  0.000  0.002  0.000  0.001  0.000  0.006
    6  0.000  0.000  0.003  0.000  0.000  0.002  0.000  0.001  0.000  0.006
    7  0.000  0.000  0.000  0.000  0.000  0.009  0.000  0.003  0.000  0.012
    8  0.000  0.000  0.003  0.000  0.000  0.002  0.000  0.001  0.000  0.006
    9  0.000  0.000  0.000  0.000  0.000  0.009  0.000  0.003  0.000  0.012
   10  0.000  0.000  0.000  0.000  0.000  0.004  0.000  0.003  0.000  0.007
   11  0.000  0.000  0.000  0.000  0.000  0.002  0.000  0.001  0.000  0.003
   12  0.000  0.000  0.000  0.000  0.000  0.000  0.000  0.006  0.000  0.007
   13  0.000  0.000  0.000  0.000  0.000  0.000  0.000  0.000  0.000  0.000
   14  0.069  0.000  0.000  0.000  0.000  0.000  0.000  0.000  0.000  0.069
   15  0.069  0.000  0.000  0.000  0.000  0.000  0.000  0.000  0.000  0.069
   16  0.021  0.000  0.000  0.000  0.000  0.000  0.000  0.000  0.000  0.021
   17  0.021  0.000  0.000  0.000  0.000  0.000  0.000  0.000  0.000  0.021
   18  0.069  0.000  0.000  0.000  0.000  0.000  0.000  0.000  0.000  0.069
   19  0.069  0.000  0.000  0.000  0.000  0.000  0.000  0.000  0.000  0.069
   20  0.000  0.000  0.000  0.000  0.000  0.000  0.000  0.000  0.000  0.000
   21  0.069  0.000  0.000  0.000  0.000  0.000  0.000  0.000  0.000  0.069
   22  0.069  0.000  0.000  0.000  0.000  0.000  0.000  0.000  0.000  0.069
   23  0.000  0.000  0.000  0.000  0.000  0.000  0.000  0.000  0.000  0.000
   24  0.000  0.000  0.000  0.000  0.000  0.000  0.000  0.000  0.000  0.000
   25  0.021  0.000  0.000  0.000  0.000  0.000  0.000  0.000  0.000  0.021
   26  0.021  0.000  0.000  0.000  0.000  0.000  0.000  0.000  0.000  0.021
   27  0.000  0.000  0.000  0.000  0.000  0.000  0.000  0.000  0.000  0.000
   28  0.000  0.000  0.000  0.000  0.000  0.000  0.000  0.000  0.000  0.000
   29  0.021  0.000  0.000  0.000  0.000  0.000  0.000  0.000  0.000  0.021
   30  0.069  0.000  0.000  0.000  0.000  0.000  0.000  0.000  0.000  0.069
   31  0.069  0.000  0.000  0.000  0.000  0.000  0.000  0.000  0.000  0.069
   32  0.021  0.000  0.000  0.000  0.000  0.000  0.000  0.000  0.000  0.021
   33  0.021  0.000  0.000  0.000  0.000  0.000  0.000  0.000  0.000  0.021
   34  0.021  0.000  0.000  0.000  0.000  0.000  0.000  0.000  0.000  0.021
   35  0.000  0.000  0.000  0.000  0.000  0.000  0.000  0.000  0.000  0.000
   36  0.000  0.000  0.000  0.000  0.000  0.000  0.000  0.000  0.000  0.000
tot    0.716  0.001  0.015  0.001  0.000  0.038  0.000  0.029  0.000  0.800
 
band    20 # energy  -13.38406467 # occ.  1.00000000
 
ion      s     py     pz     px    dxy    dyz    dz2    dxz  x2-y2    tot
    1  0.000  0.000  0.000  0.000  0.000  0.002  0.000  0.005  0.000  0.007
    2  0.000  0.000  0.000  0.000  0.000  0.002  0.000  0.005  0.000  0.007
    3  0.000  0.000  0.000  0.000  0.000  0.002  0.000  0.005  0.000  0.007
    4  0.000  0.000  0.000  0.000  0.000  0.002  0.000  0.005  0.000  0.007
    5  0.000  0.000  0.000  0.000  0.000  0.002  0.000  0.005  0.000  0.007
    6  0.000  0.000  0.000  0.000  0.000  0.002  0.000  0.005  0.000  0.007
    7  0.000  0.000  0.000  0.000  0.000  0.002  0.000  0.005  0.000  0.007
    8  0.000  0.000  0.000  0.000  0.000  0.002  0.000  0.005  0.000  0.007
    9  0.000  0.000  0.000  0.000  0.000  0.002  0.000  0.005  0.000  0.007
   10  0.000  0.000  0.000  0.000  0.000  0.002  0.000  0.005  0.000  0.007
   11  0.000  0.000  0.000  0.000  0.000  0.002  0.000  0.005  0.000  0.007
   12  0.000  0.000  0.000  0.000  0.000  0.002  0.000  0.005  0.000  0.007
   13  0.030  0.000  0.000  0.000  0.000  0.000  0.000  0.000  0.000  0.030
   14  0.030  0.000  0.000  0.000  0.000  0.000  0.000  0.000  0.000  0.030
   15  0.030  0.000  0.000  0.000  0.000  0.000  0.000  0.000  0.000  0.030
   16  0.030  0.000  0.000  0.000  0.000  0.000  0.000  0.000  0.000  0.030
   17  0.030  0.000  0.000  0.000  0.000  0.000  0.000  0.000  0.000  0.030
   18  0.030  0.000  0.000  0.000  0.000  0.000  0.000  0.000  0.000  0.030
   19  0.030  0.000  0.000  0.000  0.000  0.000  0.000  0.000  0.000  0.030
   20  0.030  0.000  0.000  0.000  0.000  0.000  0.000  0.000  0.000  0.030
   21  0.030  0.000  0.000  0.000  0.000  0.000  0.000  0.000  0.000  0.030
   22  0.030  0.000  0.000  0.000  0.000  0.000  0.000  0.000  0.000  0.030
   23  0.030  0.000  0.000  0.000  0.000  0.000  0.000  0.000  0.000  0.030
   24  0.030  0.000  0.000  0.000  0.000  0.000  0.000  0.000  0.000  0.030
   25  0.030  0.000  0.000  0.000  0.000  0.000  0.000  0.000  0.000  0.030
   26  0.030  0.000  0.000  0.000  0.000  0.000  0.000  0.000  0.000  0.030
   27  0.030  0.000  0.000  0.000  0.000  0.000  0.000  0.000  0.000  0.030
   28  0.030  0.000  0.000  0.000  0.000  0.000  0.000  0.000  0.000  0.030
   29  0.030  0.000  0.000  0.000  0.000  0.000  0.000  0.000  0.000  0.030
   30  0.030  0.000  0.000  0.000  0.000  0.000  0.000  0.000  0.000  0.030
   31  0.030  0.000  0.000  0.000  0.000  0.000  0.000  0.000  0.000  0.030
   32  0.030  0.000  0.000  0.000  0.000  0.000  0.000  0.000  0.000  0.030
   33  0.030  0.000  0.000  0.000  0.000  0.000  0.000  0.000  0.000  0.030
   34  0.030  0.000  0.000  0.000  0.000  0.000  0.000  0.000  0.000  0.030
   35  0.030  0.000  0.000  0.000  0.000  0.000  0.000  0.000  0.000  0.030
   36  0.030  0.000  0.000  0.000  0.000  0.000  0.000  0.000  0.000  0.030
tot    0.726  0.000  0.009  0.000  0.000  0.020  0.000  0.061  0.000  0.817
 
band    21 # energy  -13.38324351 # occ.  1.00000000
 
ion      s     py     pz     px    dxy    dyz    dz2    dxz  x2-y2    tot
    1  0.000  0.003  0.000  0.000  0.000  0.000  0.000  0.000  0.003  0.007
    2  0.000  0.001  0.000  0.003  0.002  0.000  0.000  0.000  0.001  0.007
    3  0.000  0.001  0.000  0.003  0.002  0.000  0.000  0.000  0.001  0.007
    4  0.000  0.001  0.000  0.003  0.002  0.000  0.000  0.000  0.001  0.006
    5  0.000  0.001  0.000  0.003  0.002  0.000  0.000  0.000  0.001  0.007
    6  0.000  0.003  0.000  0.000  0.000  0.000  0.000  0.000  0.003  0.007
    7  0.000  0.001  0.000  0.003  0.002  0.000  0.000  0.000  0.001  0.006
    8  0.000  0.003  0.000  0.000  0.000  0.000  0.000  0.000  0.003  0.007
    9  0.000  0.001  0.000  0.003  0.002  0.000  0.000  0.000  0.001  0.006
   10  0.000  0.001  0.000  0.003  0.002  0.000  0.000  0.000  0.001  0.007
   11  0.000  0.001  0.000  0.003  0.002  0.000  0.000  0.000  0.001  0.006
   12  0.000  0.003  0.000  0.000  0.000  0.000  0.000  0.000  0.003  0.007
   13  0.060  0.000  0.001  0.000  0.000  0.000  0.000  0.000  0.000  0.061
   14  0.015  0.000  0.000  0.000  0.000  0.000  0.000  0.000  0.000  0.015
   15  0.015  0.000  0.000  0.000  0.000  0.000  0.000  0.000  0.000  0.015
   16  0.015  0.000  0.000  0.000  0.000  0.000  0.000  0.000  0.000  0.015
   17  0.015  0.000  0.000  0.000  0.000  0.000  0.000  0.000  0.000  0.015
   18  0.015  0.000  0.000  0.000  0.000  0.000  0.000  0.000  0.000  0.015
   19  0.015  0.000  0.000  0.000  0.000  0.000  0.000  0.000  0.000  0.015
   20  0.060  0.000  0.001  0.000  0.000  0.000  0.000  0.000  0.000  0.061
   21  0.015  0.000  0.000  0.000  0.000  0.000  0.000  0.000  0.000  0.015
   22  0.015  0.000  0.000  0.000  0.000  0.000  0.000  0.000  0.000  0.015
   23  0.060  0.000  0.001  0.000  0.000  0.000  0.000  0.000  0.000  0.061
   24  0.060  0.000  0.001  0.000  0.000  0.000  0.000  0.000  0.000  0.061
   25  0.015  0.000  0.000  0.000  0.000  0.000  0.000  0.000  0.000  0.015
   26  0.015  0.000  0.000  0.000  0.000  0.000  0.000  0.000  0.000  0.015
   27  0.060  0.000  0.001  0.000  0.000  0.000  0.000  0.000  0.000  0.061
   28  0.060  0.000  0.001  0.000  0.000  0.000  0.000  0.000  0.000  0.061
   29  0.015  0.000  0.000  0.000  0.000  0.000  0.000  0.000  0.000  0.015
   30  0.015  0.000  0.000  0.000  0.000  0.000  0.000  0.000  0.000  0.015
   31  0.015  0.000  0.000  0.000  0.000  0.000  0.000  0.000  0.000  0.015
   32  0.015  0.000  0.000  0.000  0.000  0.000  0.000  0.000  0.000  0.015
   33  0.015  0.000  0.000  0.000  0.000  0.000  0.000  0.000  0.000  0.015
   34  0.015  0.000  0.000  0.000  0.000  0.000  0.000  0.000  0.000  0.015
   35  0.060  0.000  0.001  0.000  0.000  0.000  0.000  0.000  0.000  0.061
   36  0.060  0.000  0.001  0.000  0.000  0.000  0.000  0.000  0.000  0.061
tot    0.724  0.021  0.009  0.020  0.019  0.000  0.001  0.000  0.019  0.811
 
band    22 # energy  -13.38322371 # occ.  1.00000000
 
ion      s     py     pz     px    dxy    dyz    dz2    dxz  x2-y2    tot
    1  0.000  0.000  0.000  0.003  0.003  0.000  0.000  0.000  0.000  0.007
    2  0.000  0.003  0.000  0.001  0.001  0.000  0.000  0.000  0.002  0.007
    3  0.000  0.003  0.000  0.001  0.001  0.000  0.000  0.000  0.002  0.007
    4  0.000  0.003  0.000  0.001  0.001  0.000  0.000  0.000  0.002  0.007
    5  0.000  0.003  0.000  0.001  0.001  0.000  0.000  0.000  0.002  0.007
    6  0.000  0.000  0.000  0.003  0.003  0.000  0.000  0.000  0.000  0.007
    7  0.000  0.003  0.000  0.001  0.001  0.000  0.000  0.000  0.002  0.007
    8  0.000  0.000  0.000  0.003  0.003  0.000  0.000  0.000  0.000  0.007
    9  0.000  0.003  0.000  0.001  0.001  0.000  0.000  0.000  0.002  0.007
   10  0.000  0.003  0.000  0.001  0.001  0.000  0.000  0.000  0.002  0.007
   11  0.000  0.003  0.000  0.001  0.001  0.000  0.000  0.000  0.002  0.007
   12  0.000  0.000  0.000  0.003  0.003  0.000  0.000  0.000  0.000  0.007
   13  0.000  0.000  0.000  0.000  0.000  0.000  0.000  0.000  0.000  0.000
   14  0.045  0.000  0.001  0.000  0.000  0.000  0.000  0.000  0.000  0.046
   15  0.045  0.000  0.001  0.000  0.000  0.000  0.000  0.000  0.000  0.046
   16  0.045  0.000  0.001  0.000  0.000  0.000  0.000  0.000  0.000  0.046
   17  0.045  0.000  0.001  0.000  0.000  0.000  0.000  0.000  0.000  0.046
   18  0.045  0.000  0.001  0.000  0.000  0.000  0.000  0.000  0.000  0.046
   19  0.045  0.000  0.001  0.000  0.000  0.000  0.000  0.000  0.000  0.046
   20  0.000  0.000  0.000  0.000  0.000  0.000  0.000  0.000  0.000  0.000
   21  0.045  0.000  0.001  0.000  0.000  0.000  0.000  0.000  0.000  0.046
   22  0.045  0.000  0.001  0.000  0.000  0.000  0.000  0.000  0.000  0.046
   23  0.000  0.000  0.000  0.000  0.000  0.000  0.000  0.000  0.000  0.000
   24  0.000  0.000  0.000  0.000  0.000  0.000  0.000  0.000  0.000  0.000
   25  0.045  0.000  0.001  0.000  0.000  0.000  0.000  0.000  0.000  0.046
   26  0.045  0.000  0.001  0.000  0.000  0.000  0.000  0.000  0.000  0.046
   27  0.000  0.000  0.000  0.000  0.000  0.000  0.000  0.000  0.000  0.000
   28  0.000  0.000  0.000  0.000  0.000  0.000  0.000  0.000  0.000  0.000
   29  0.045  0.000  0.001  0.000  0.000  0.000  0.000  0.000  0.000  0.046
   30  0.045  0.000  0.001  0.000  0.000  0.000  0.000  0.000  0.000  0.046
   31  0.045  0.000  0.001  0.000  0.000  0.000  0.000  0.000  0.000  0.046
   32  0.045  0.000  0.001  0.000  0.000  0.000  0.000  0.000  0.000  0.046
   33  0.045  0.000  0.001  0.000  0.000  0.000  0.000  0.000  0.000  0.046
   34  0.045  0.000  0.001  0.000  0.000  0.000  0.000  0.000  0.000  0.046
   35  0.000  0.000  0.000  0.000  0.000  0.000  0.000  0.000  0.000  0.000
   36  0.000  0.000  0.000  0.000  0.000  0.000  0.000  0.000  0.000  0.000
tot    0.724  0.021  0.009  0.020  0.019  0.000  0.001  0.000  0.019  0.811
 
band    23 # energy  -13.21898862 # occ.  1.00000000
 
ion      s     py     pz     px    dxy    dyz    dz2    dxz  x2-y2    tot
    1  0.000  0.000  0.000  0.000  0.000  0.000  0.000  0.007  0.000  0.007
    2  0.000  0.000  0.000  0.000  0.000  0.005  0.000  0.002  0.000  0.007
    3  0.000  0.000  0.000  0.000  0.000  0.005  0.000  0.002  0.000  0.007
    4  0.000  0.000  0.000  0.000  0.000  0.006  0.000  0.002  0.000  0.007
    5  0.000  0.000  0.000  0.000  0.000  0.005  0.000  0.002  0.000  0.007
    6  0.000  0.000  0.000  0.000  0.000  0.000  0.000  0.007  0.000  0.007
    7  0.000  0.000  0.000  0.000  0.000  0.006  0.000  0.002  0.000  0.007
    8  0.000  0.000  0.000  0.000  0.000  0.000  0.000  0.007  0.000  0.007
    9  0.000  0.000  0.000  0.000  0.000  0.006  0.000  0.002  0.000  0.007
   10  0.000  0.000  0.000  0.000  0.000  0.005  0.000  0.002  0.000  0.007
   11  0.000  0.000  0.000  0.000  0.000  0.006  0.000  0.002  0.000  0.007
   12  0.000  0.000  0.000  0.000  0.000  0.000  0.000  0.007  0.000  0.007
   13  0.000  0.000  0.000  0.000  0.000  0.000  0.000  0.000  0.000  0.000
   14  0.046  0.000  0.000  0.000  0.000  0.000  0.000  0.000  0.000  0.046
   15  0.046  0.000  0.000  0.000  0.000  0.000  0.000  0.000  0.000  0.047
   16  0.046  0.000  0.000  0.000  0.000  0.000  0.000  0.000  0.000  0.047
   17  0.046  0.000  0.000  0.000  0.000  0.000  0.000  0.000  0.000  0.046
   18  0.046  0.000  0.000  0.000  0.000  0.000  0.000  0.000  0.000  0.047
   19  0.046  0.000  0.000  0.000  0.000  0.000  0.000  0.000  0.000  0.047
   20  0.000  0.000  0.000  0.000  0.000  0.000  0.000  0.000  0.000  0.000
   21  0.046  0.000  0.000  0.000  0.000  0.000  0.000  0.000  0.000  0.046
   22  0.046  0.000  0.000  0.000  0.000  0.000  0.000  0.000  0.000  0.047
   23  0.000  0.000  0.000  0.000  0.000  0.000  0.000  0.000  0.000  0.000
   24  0.000  0.000  0.000  0.000  0.000  0.000  0.000  0.000  0.000  0.000
   25  0.046  0.000  0.000  0.000  0.000  0.000  0.000  0.000  0.000  0.046
   26  0.046  0.000  0.000  0.000  0.000  0.000  0.000  0.000  0.000  0.046
   27  0.000  0.000  0.000  0.000  0.000  0.000  0.000  0.000  0.000  0.000
   28  0.000  0.000  0.000  0.000  0.000  0.000  0.000  0.000  0.000  0.000
   29  0.046  0.000  0.000  0.000  0.000  0.000  0.000  0.000  0.000  0.047
   30  0.046  0.000  0.000  0.000  0.000  0.000  0.000  0.000  0.000  0.047
   31  0.046  0.000  0.000  0.000  0.000  0.000  0.000  0.000  0.000  0.047
   32  0.046  0.000  0.000  0.000  0.000  0.000  0.000  0.000  0.000  0.046
   33  0.046  0.000  0.000  0.000  0.000  0.000  0.000  0.000  0.000  0.046
   34  0.046  0.000  0.000  0.000  0.000  0.000  0.000  0.000  0.000  0.046
   35  0.000  0.000  0.000  0.000  0.000  0.000  0.000  0.000  0.000  0.000
   36  0.000  0.000  0.000  0.000  0.000  0.000  0.000  0.000  0.000  0.000
tot    0.740  0.000  0.004  0.000  0.000  0.044  0.000  0.044  0.000  0.832
 
band    24 # energy  -13.21892651 # occ.  1.00000000
 
ion      s     py     pz     px    dxy    dyz    dz2    dxz  x2-y2    tot
    1  0.000  0.000  0.000  0.000  0.000  0.007  0.000  0.000  0.000  0.007
    2  0.000  0.000  0.000  0.000  0.000  0.002  0.000  0.005  0.000  0.007
    3  0.000  0.000  0.000  0.000  0.000  0.002  0.000  0.005  0.000  0.007
    4  0.000  0.000  0.000  0.000  0.000  0.002  0.000  0.005  0.000  0.007
    5  0.000  0.000  0.000  0.000  0.000  0.002  0.000  0.005  0.000  0.007
    6  0.000  0.000  0.000  0.000  0.000  0.007  0.000  0.000  0.000  0.007
    7  0.000  0.000  0.000  0.000  0.000  0.002  0.000  0.005  0.000  0.007
    8  0.000  0.000  0.000  0.000  0.000  0.007  0.000  0.000  0.000  0.007
    9  0.000  0.000  0.000  0.000  0.000  0.002  0.000  0.005  0.000  0.007
   10  0.000  0.000  0.000  0.000  0.000  0.002  0.000  0.005  0.000  0.007
   11  0.000  0.000  0.000  0.000  0.000  0.002  0.000  0.005  0.000  0.007
   12  0.000  0.000  0.000  0.000  0.000  0.007  0.000  0.000  0.000  0.007
   13  0.062  0.000  0.000  0.000  0.000  0.000  0.000  0.000  0.000  0.062
   14  0.015  0.000  0.000  0.000  0.000  0.000  0.000  0.000  0.000  0.016
   15  0.015  0.000  0.000  0.000  0.000  0.000  0.000  0.000  0.000  0.016
   16  0.015  0.000  0.000  0.000  0.000  0.000  0.000  0.000  0.000  0.015
   17  0.015  0.000  0.000  0.000  0.000  0.000  0.000  0.000  0.000  0.015
   18  0.015  0.000  0.000  0.000  0.000  0.000  0.000  0.000  0.000  0.015
   19  0.015  0.000  0.000  0.000  0.000  0.000  0.000  0.000  0.000  0.015
   20  0.062  0.000  0.000  0.000  0.000  0.000  0.000  0.000  0.000  0.062
   21  0.015  0.000  0.000  0.000  0.000  0.000  0.000  0.000  0.000  0.016
   22  0.015  0.000  0.000  0.000  0.000  0.000  0.000  0.000  0.000  0.016
   23  0.062  0.000  0.000  0.000  0.000  0.000  0.000  0.000  0.000  0.062
   24  0.062  0.000  0.000  0.000  0.000  0.000  0.000  0.000  0.000  0.062
   25  0.015  0.000  0.000  0.000  0.000  0.000  0.000  0.000  0.000  0.016
   26  0.015  0.000  0.000  0.000  0.000  0.000  0.000  0.000  0.000  0.015
   27  0.062  0.000  0.000  0.000  0.000  0.000  0.000  0.000  0.000  0.062
   28  0.062  0.000  0.000  0.000  0.000  0.000  0.000  0.000  0.000  0.062
   29  0.015  0.000  0.000  0.000  0.000  0.000  0.000  0.000  0.000  0.015
   30  0.015  0.000  0.000  0.000  0.000  0.000  0.000  0.000  0.000  0.015
   31  0.015  0.000  0.000  0.000  0.000  0.000  0.000  0.000  0.000  0.015
   32  0.015  0.000  0.000  0.000  0.000  0.000  0.000  0.000  0.000  0.015
   33  0.015  0.000  0.000  0.000  0.000  0.000  0.000  0.000  0.000  0.015
   34  0.015  0.000  0.000  0.000  0.000  0.000  0.000  0.000  0.000  0.016
   35  0.062  0.000  0.000  0.000  0.000  0.000  0.000  0.000  0.000  0.062
   36  0.062  0.000  0.000  0.000  0.000  0.000  0.000  0.000  0.000  0.062
tot    0.740  0.000  0.004  0.000  0.000  0.044  0.000  0.044  0.000  0.832
 
band    25 # energy   -6.72790545 # occ.  1.00000000
 
ion      s     py     pz     px    dxy    dyz    dz2    dxz  x2-y2    tot
    1  0.009  0.000  0.000  0.001  0.004  0.000  0.002  0.000  0.001  0.019
    2  0.009  0.000  0.000  0.001  0.004  0.000  0.002  0.000  0.001  0.019
    3  0.009  0.000  0.000  0.001  0.004  0.000  0.002  0.000  0.001  0.019
    4  0.009  0.000  0.000  0.001  0.004  0.000  0.002  0.000  0.001  0.019
    5  0.009  0.000  0.000  0.001  0.004  0.000  0.002  0.000  0.001  0.019
    6  0.009  0.000  0.000  0.001  0.004  0.000  0.002  0.000  0.001  0.019
    7  0.009  0.000  0.000  0.001  0.004  0.000  0.002  0.000  0.001  0.019
    8  0.009  0.000  0.000  0.001  0.004  0.000  0.002  0.000  0.001  0.019
    9  0.009  0.000  0.000  0.001  0.004  0.000  0.002  0.000  0.001  0.019
   10  0.009  0.000  0.000  0.001  0.004  0.000  0.002  0.000  0.001  0.019
   11  0.009  0.000  0.000  0.001  0.004  0.000  0.002  0.000  0.001  0.019
   12  0.009  0.000  0.000  0.001  0.004  0.000  0.002  0.000  0.001  0.019
   13  0.000  0.003  0.000  0.010  0.000  0.000  0.000  0.000  0.000  0.015
   14  0.000  0.003  0.000  0.010  0.000  0.000  0.000  0.000  0.000  0.015
   15  0.000  0.003  0.000  0.010  0.000  0.000  0.000  0.000  0.000  0.015
   16  0.000  0.003  0.000  0.010  0.000  0.000  0.000  0.000  0.000  0.015
   17  0.000  0.003  0.000  0.010  0.000  0.000  0.000  0.000  0.000  0.015
   18  0.000  0.003  0.000  0.010  0.000  0.000  0.000  0.000  0.000  0.015
   19  0.000  0.003  0.000  0.010  0.000  0.000  0.000  0.000  0.000  0.015
   20  0.000  0.003  0.000  0.010  0.000  0.000  0.000  0.000  0.000  0.015
   21  0.000  0.003  0.000  0.010  0.000  0.000  0.000  0.000  0.000  0.015
   22  0.000  0.003  0.000  0.010  0.000  0.000  0.000  0.000  0.000  0.015
   23  0.000  0.003  0.000  0.010  0.000  0.000  0.000  0.000  0.000  0.015
   24  0.000  0.003  0.000  0.010  0.000  0.000  0.000  0.000  0.000  0.015
   25  0.000  0.003  0.000  0.010  0.000  0.000  0.000  0.000  0.000  0.015
   26  0.000  0.003  0.000  0.010  0.000  0.000  0.000  0.000  0.000  0.015
   27  0.000  0.003  0.000  0.010  0.000  0.000  0.000  0.000  0.000  0.015
   28  0.000  0.003  0.000  0.010  0.000  0.000  0.000  0.000  0.000  0.015
   29  0.000  0.003  0.000  0.010  0.000  0.000  0.000  0.000  0.000  0.015
   30  0.000  0.003  0.000  0.010  0.000  0.000  0.000  0.000  0.000  0.015
   31  0.000  0.003  0.000  0.010  0.000  0.000  0.000  0.000  0.000  0.015
   32  0.000  0.003  0.000  0.010  0.000  0.000  0.000  0.000  0.000  0.015
   33  0.000  0.003  0.000  0.010  0.000  0.000  0.000  0.000  0.000  0.015
   34  0.000  0.003  0.000  0.010  0.000  0.000  0.000  0.000  0.000  0.015
   35  0.000  0.003  0.000  0.010  0.000  0.000  0.000  0.000  0.000  0.015
   36  0.000  0.003  0.000  0.010  0.000  0.000  0.000  0.000  0.000  0.015
tot    0.119  0.088  0.008  0.265  0.048  0.001  0.030  0.002  0.016  0.577
 
band    26 # energy   -6.48632686 # occ.  1.00000000
 
ion      s     py     pz     px    dxy    dyz    dz2    dxz  x2-y2    tot
    1  0.012  0.000  0.000  0.000  0.000  0.000  0.013  0.000  0.000  0.025
    2  0.012  0.000  0.000  0.000  0.000  0.000  0.013  0.000  0.000  0.025
    3  0.012  0.000  0.000  0.000  0.000  0.000  0.013  0.000  0.000  0.025
    4  0.012  0.000  0.000  0.000  0.000  0.000  0.013  0.000  0.000  0.025
    5  0.012  0.000  0.000  0.000  0.000  0.000  0.013  0.000  0.000  0.025
    6  0.012  0.000  0.000  0.000  0.000  0.000  0.013  0.000  0.000  0.025
    7  0.012  0.000  0.000  0.000  0.000  0.000  0.013  0.000  0.000  0.025
    8  0.012  0.000  0.000  0.000  0.000  0.000  0.013  0.000  0.000  0.025
    9  0.012  0.000  0.000  0.000  0.000  0.000  0.013  0.000  0.000  0.025
   10  0.012  0.000  0.000  0.000  0.000  0.000  0.013  0.000  0.000  0.025
   11  0.012  0.000  0.000  0.000  0.000  0.000  0.013  0.000  0.000  0.025
   12  0.012  0.000  0.000  0.000  0.000  0.000  0.013  0.000  0.000  0.025
   13  0.001  0.000  0.011  0.000  0.000  0.000  0.000  0.000  0.000  0.013
   14  0.001  0.000  0.011  0.000  0.000  0.000  0.000  0.000  0.000  0.013
   15  0.001  0.000  0.011  0.000  0.000  0.000  0.000  0.000  0.000  0.013
   16  0.001  0.000  0.011  0.000  0.000  0.000  0.000  0.000  0.000  0.013
   17  0.001  0.000  0.011  0.000  0.000  0.000  0.000  0.000  0.000  0.013
   18  0.001  0.000  0.011  0.000  0.000  0.000  0.000  0.000  0.000  0.013
   19  0.001  0.000  0.011  0.000  0.000  0.000  0.000  0.000  0.000  0.013
   20  0.001  0.000  0.011  0.000  0.000  0.000  0.000  0.000  0.000  0.013
   21  0.001  0.000  0.011  0.000  0.000  0.000  0.000  0.000  0.000  0.013
   22  0.001  0.000  0.011  0.000  0.000  0.000  0.000  0.000  0.000  0.013
   23  0.001  0.000  0.011  0.000  0.000  0.000  0.000  0.000  0.000  0.013
   24  0.001  0.000  0.011  0.000  0.000  0.000  0.000  0.000  0.000  0.013
   25  0.001  0.000  0.011  0.000  0.000  0.000  0.000  0.000  0.000  0.013
   26  0.001  0.000  0.011  0.000  0.000  0.000  0.000  0.000  0.000  0.013
   27  0.001  0.000  0.011  0.000  0.000  0.000  0.000  0.000  0.000  0.013
   28  0.001  0.000  0.011  0.000  0.000  0.000  0.000  0.000  0.000  0.013
   29  0.001  0.000  0.011  0.000  0.000  0.000  0.000  0.000  0.000  0.013
   30  0.001  0.000  0.011  0.000  0.000  0.000  0.000  0.000  0.000  0.013
   31  0.001  0.000  0.011  0.000  0.000  0.000  0.000  0.000  0.000  0.013
   32  0.001  0.000  0.011  0.000  0.000  0.000  0.000  0.000  0.000  0.013
   33  0.001  0.000  0.011  0.000  0.000  0.000  0.000  0.000  0.000  0.013
   34  0.001  0.000  0.011  0.000  0.000  0.000  0.000  0.000  0.000  0.013
   35  0.001  0.000  0.011  0.000  0.000  0.000  0.000  0.000  0.000  0.013
   36  0.001  0.000  0.011  0.000  0.000  0.000  0.000  0.000  0.000  0.013
tot    0.174  0.000  0.270  0.000  0.000  0.000  0.167  0.000  0.000  0.612
 
band    27 # energy   -6.22168288 # occ.  1.00000000
 
ion      s     py     pz     px    dxy    dyz    dz2    dxz  x2-y2    tot
    1  0.001  0.001  0.000  0.000  0.009  0.000  0.002  0.000  0.011  0.023
    2  0.006  0.003  0.000  0.001  0.007  0.000  0.001  0.000  0.001  0.019
    3  0.001  0.001  0.000  0.000  0.002  0.000  0.002  0.000  0.018  0.023
    4  0.003  0.000  0.000  0.000  0.002  0.000  0.006  0.000  0.001  0.012
    5  0.006  0.003  0.000  0.001  0.007  0.000  0.001  0.000  0.001  0.019
    6  0.006  0.003  0.000  0.001  0.000  0.000  0.001  0.000  0.008  0.019
    7  0.022  0.000  0.000  0.000  0.012  0.000  0.006  0.000  0.004  0.044
    8  0.006  0.003  0.000  0.001  0.000  0.000  0.001  0.000  0.008  0.019
    9  0.022  0.000  0.000  0.000  0.012  0.000  0.006  0.000  0.004  0.044
   10  0.001  0.001  0.000  0.000  0.002  0.000  0.002  0.000  0.018  0.023
   11  0.003  0.000  0.000  0.000  0.002  0.000  0.006  0.000  0.001  0.012
   12  0.001  0.001  0.000  0.000  0.009  0.000  0.002  0.000  0.011  0.023
   13  0.002  0.000  0.001  0.001  0.000  0.000  0.000  0.000  0.000  0.005
   14  0.000  0.019  0.000  0.003  0.000  0.000  0.000  0.000  0.000  0.022
   15  0.000  0.019  0.000  0.003  0.000  0.000  0.000  0.000  0.000  0.022
   16  0.000  0.006  0.001  0.001  0.000  0.000  0.000  0.000  0.000  0.008
   17  0.000  0.006  0.001  0.001  0.000  0.000  0.000  0.000  0.000  0.008
   18  0.000  0.013  0.000  0.008  0.000  0.000  0.000  0.000  0.000  0.023
   19  0.000  0.013  0.000  0.008  0.000  0.000  0.000  0.000  0.000  0.023
   20  0.002  0.000  0.001  0.001  0.000  0.000  0.000  0.000  0.000  0.005
   21  0.000  0.019  0.000  0.003  0.000  0.000  0.000  0.000  0.000  0.022
   22  0.000  0.019  0.000  0.003  0.000  0.000  0.000  0.000  0.000  0.022
   23  0.000  0.004  0.004  0.011  0.000  0.000  0.000  0.000  0.000  0.019
   24  0.000  0.004  0.004  0.011  0.000  0.000  0.000  0.000  0.000  0.019
   25  0.000  0.000  0.001  0.007  0.000  0.000  0.000  0.000  0.000  0.008
   26  0.000  0.000  0.001  0.007  0.000  0.000  0.000  0.000  0.000  0.008
   27  0.002  0.000  0.001  0.001  0.000  0.000  0.000  0.000  0.000  0.005
   28  0.002  0.000  0.001  0.001  0.000  0.000  0.000  0.000  0.000  0.005
   29  0.000  0.006  0.001  0.001  0.000  0.000  0.000  0.000  0.000  0.008
   30  0.000  0.013  0.000  0.008  0.000  0.000  0.000  0.000  0.000  0.023
   31  0.000  0.013  0.000  0.008  0.000  0.000  0.000  0.000  0.000  0.023
   32  0.000  0.006  0.001  0.001  0.000  0.000  0.000  0.000  0.000  0.008
   33  0.000  0.000  0.001  0.007  0.000  0.000  0.000  0.000  0.000  0.008
   34  0.000  0.000  0.001  0.007  0.000  0.000  0.000  0.000  0.000  0.008
   35  0.000  0.004  0.004  0.011  0.000  0.000  0.000  0.000  0.000  0.019
   36  0.000  0.004  0.004  0.011  0.000  0.000  0.000  0.000  0.000  0.019
tot    0.086  0.185  0.030  0.129  0.065  0.002  0.040  0.001  0.083  0.623
 
band    28 # energy   -6.22157927 # occ.  1.00000000
 
ion      s     py     pz     px    dxy    dyz    dz2    dxz  x2-y2    tot
    1  0.002  0.000  0.000  0.000  0.000  0.000  0.005  0.000  0.009  0.016
    2  0.017  0.001  0.000  0.000  0.006  0.000  0.004  0.000  0.007  0.035
    3  0.002  0.000  0.000  0.000  0.007  0.000  0.005  0.000  0.002  0.016
    4  0.000  0.001  0.000  0.000  0.006  0.000  0.000  0.000  0.019  0.026
    5  0.017  0.001  0.000  0.000  0.006  0.000  0.004  0.000  0.007  0.035
    6  0.017  0.001  0.000  0.000  0.013  0.000  0.004  0.000  0.000  0.035
    7  0.000  0.004  0.000  0.001  0.001  0.000  0.000  0.000  0.004  0.011
    8  0.017  0.001  0.000  0.000  0.013  0.000  0.004  0.000  0.000  0.035
    9  0.000  0.004  0.000  0.001  0.001  0.000  0.000  0.000  0.004  0.011
   10  0.002  0.000  0.000  0.000  0.007  0.000  0.005  0.000  0.002  0.016
   11  0.000  0.001  0.000  0.000  0.006  0.000  0.000  0.000  0.019  0.026
   12  0.002  0.000  0.000  0.000  0.000  0.000  0.005  0.000  0.009  0.016
   13  0.000  0.021  0.000  0.007  0.000  0.000  0.000  0.000  0.000  0.028
   14  0.001  0.003  0.001  0.006  0.000  0.000  0.000  0.000  0.000  0.011
   15  0.001  0.003  0.001  0.006  0.000  0.000  0.000  0.000  0.000  0.011
   16  0.000  0.001  0.003  0.012  0.000  0.000  0.000  0.000  0.000  0.016
   17  0.000  0.001  0.003  0.012  0.000  0.000  0.000  0.000  0.000  0.016
   18  0.001  0.008  0.001  0.000  0.000  0.000  0.000  0.000  0.000  0.011
   19  0.001  0.008  0.001  0.000  0.000  0.000  0.000  0.000  0.000  0.011
   20  0.000  0.021  0.000  0.007  0.000  0.000  0.000  0.000  0.000  0.028
   21  0.001  0.003  0.001  0.006  0.000  0.000  0.000  0.000  0.000  0.011
   22  0.001  0.003  0.001  0.006  0.000  0.000  0.000  0.000  0.000  0.011
   23  0.000  0.003  0.000  0.001  0.000  0.000  0.000  0.000  0.000  0.005
   24  0.000  0.003  0.000  0.001  0.000  0.000  0.000  0.000  0.000  0.005
   25  0.000  0.007  0.003  0.006  0.000  0.000  0.000  0.000  0.000  0.016
   26  0.000  0.007  0.003  0.006  0.000  0.000  0.000  0.000  0.000  0.016
   27  0.000  0.021  0.000  0.007  0.000  0.000  0.000  0.000  0.000  0.028
   28  0.000  0.021  0.000  0.007  0.000  0.000  0.000  0.000  0.000  0.028
   29  0.000  0.001  0.003  0.012  0.000  0.000  0.000  0.000  0.000  0.016
   30  0.001  0.008  0.001  0.000  0.000  0.000  0.000  0.000  0.000  0.011
   31  0.001  0.008  0.001  0.000  0.000  0.000  0.000  0.000  0.000  0.011
   32  0.000  0.001  0.003  0.012  0.000  0.000  0.000  0.000  0.000  0.016
   33  0.000  0.007  0.003  0.006  0.000  0.000  0.000  0.000  0.000  0.016
   34  0.000  0.007  0.003  0.006  0.000  0.000  0.000  0.000  0.000  0.016
   35  0.000  0.003  0.000  0.001  0.000  0.000  0.000  0.000  0.000  0.005
   36  0.000  0.003  0.000  0.001  0.000  0.000  0.000  0.000  0.000  0.005
tot    0.086  0.185  0.030  0.130  0.065  0.002  0.040  0.001  0.083  0.623
 
band    29 # energy   -6.22145158 # occ.  1.00000000
 
ion      s     py     pz     px    dxy    dyz    dz2    dxz  x2-y2    tot
    1  0.005  0.003  0.000  0.001  0.000  0.000  0.001  0.000  0.008  0.019
    2  0.001  0.001  0.000  0.000  0.002  0.000  0.002  0.000  0.018  0.023
    3  0.006  0.003  0.000  0.001  0.007  0.000  0.002  0.000  0.001  0.019
    4  0.022  0.000  0.000  0.000  0.012  0.000  0.006  0.000  0.004  0.044
    5  0.001  0.001  0.000  0.000  0.002  0.000  0.002  0.000  0.018  0.023
    6  0.001  0.001  0.000  0.000  0.009  0.000  0.002  0.000  0.011  0.023
    7  0.003  0.000  0.000  0.000  0.002  0.000  0.006  0.000  0.001  0.012
    8  0.001  0.001  0.000  0.000  0.009  0.000  0.002  0.000  0.011  0.023
    9  0.003  0.000  0.000  0.000  0.002  0.000  0.006  0.000  0.001  0.012
   10  0.006  0.003  0.000  0.001  0.007  0.000  0.002  0.000  0.001  0.019
   11  0.022  0.000  0.000  0.000  0.012  0.000  0.006  0.000  0.004  0.044
   12  0.005  0.003  0.000  0.001  0.000  0.000  0.001  0.000  0.008  0.019
   13  0.000  0.004  0.004  0.011  0.000  0.000  0.000  0.000  0.000  0.019
   14  0.000  0.000  0.001  0.007  0.000  0.000  0.000  0.000  0.000  0.008
   15  0.000  0.000  0.001  0.007  0.000  0.000  0.000  0.000  0.000  0.008
   16  0.000  0.013  0.000  0.008  0.000  0.000  0.000  0.000  0.000  0.022
   17  0.000  0.013  0.000  0.008  0.000  0.000  0.000  0.000  0.000  0.022
   18  0.000  0.006  0.001  0.001  0.000  0.000  0.000  0.000  0.000  0.008
   19  0.000  0.006  0.001  0.001  0.000  0.000  0.000  0.000  0.000  0.008
   20  0.000  0.004  0.004  0.011  0.000  0.000  0.000  0.000  0.000  0.019
   21  0.000  0.000  0.001  0.007  0.000  0.000  0.000  0.000  0.000  0.008
   22  0.000  0.000  0.001  0.007  0.000  0.000  0.000  0.000  0.000  0.008
   23  0.002  0.001  0.001  0.001  0.000  0.000  0.000  0.000  0.000  0.005
   24  0.002  0.000  0.001  0.001  0.000  0.000  0.000  0.000  0.000  0.005
   25  0.000  0.019  0.000  0.003  0.000  0.000  0.000  0.000  0.000  0.023
   26  0.000  0.019  0.000  0.003  0.000  0.000  0.000  0.000  0.000  0.023
   27  0.000  0.004  0.004  0.011  0.000  0.000  0.000  0.000  0.000  0.019
   28  0.000  0.004  0.004  0.011  0.000  0.000  0.000  0.000  0.000  0.019
   29  0.000  0.013  0.000  0.008  0.000  0.000  0.000  0.000  0.000  0.022
   30  0.000  0.006  0.001  0.001  0.000  0.000  0.000  0.000  0.000  0.008
   31  0.000  0.006  0.001  0.001  0.000  0.000  0.000  0.000  0.000  0.008
   32  0.000  0.013  0.000  0.008  0.000  0.000  0.000  0.000  0.000  0.022
   33  0.000  0.019  0.000  0.003  0.000  0.000  0.000  0.000  0.000  0.023
   34  0.000  0.019  0.000  0.003  0.000  0.000  0.000  0.000  0.000  0.023
   35  0.002  0.000  0.001  0.001  0.000  0.000  0.000  0.000  0.000  0.005
   36  0.002  0.001  0.001  0.001  0.000  0.000  0.000  0.000  0.000  0.005
tot    0.086  0.186  0.030  0.129  0.065  0.002  0.040  0.001  0.083  0.623
 
band    30 # energy   -6.22134944 # occ.  1.00000000
 
ion      s     py     pz     px    dxy    dyz    dz2    dxz  x2-y2    tot
    1  0.017  0.001  0.000  0.000  0.013  0.000  0.004  0.000  0.000  0.035
    2  0.002  0.000  0.000  0.000  0.007  0.000  0.005  0.000  0.002  0.016
    3  0.017  0.001  0.000  0.000  0.006  0.000  0.004  0.000  0.007  0.035
    4  0.000  0.004  0.000  0.001  0.001  0.000  0.000  0.000  0.004  0.011
    5  0.002  0.000  0.000  0.000  0.007  0.000  0.005  0.000  0.002  0.016
    6  0.002  0.000  0.000  0.000  0.000  0.000  0.005  0.000  0.009  0.016
    7  0.000  0.001  0.000  0.000  0.006  0.000  0.000  0.000  0.019  0.026
    8  0.002  0.000  0.000  0.000  0.000  0.000  0.005  0.000  0.009  0.016
    9  0.000  0.001  0.000  0.000  0.006  0.000  0.000  0.000  0.019  0.026
   10  0.017  0.001  0.000  0.000  0.006  0.000  0.004  0.000  0.007  0.035
   11  0.000  0.004  0.000  0.001  0.001  0.000  0.000  0.000  0.004  0.011
   12  0.017  0.001  0.000  0.000  0.013  0.000  0.004  0.000  0.000  0.035
   13  0.000  0.003  0.000  0.001  0.000  0.000  0.000  0.000  0.000  0.005
   14  0.000  0.007  0.003  0.006  0.000  0.000  0.000  0.000  0.000  0.016
   15  0.000  0.007  0.003  0.006  0.000  0.000  0.000  0.000  0.000  0.016
   16  0.001  0.008  0.001  0.000  0.000  0.000  0.000  0.000  0.000  0.011
   17  0.001  0.008  0.001  0.000  0.000  0.000  0.000  0.000  0.000  0.011
   18  0.000  0.001  0.003  0.012  0.000  0.000  0.000  0.000  0.000  0.016
   19  0.000  0.001  0.003  0.012  0.000  0.000  0.000  0.000  0.000  0.016
   20  0.000  0.003  0.000  0.001  0.000  0.000  0.000  0.000  0.000  0.005
   21  0.000  0.007  0.003  0.006  0.000  0.000  0.000  0.000  0.000  0.016
   22  0.000  0.007  0.003  0.006  0.000  0.000  0.000  0.000  0.000  0.016
   23  0.000  0.021  0.000  0.007  0.000  0.000  0.000  0.000  0.000  0.028
   24  0.000  0.021  0.000  0.007  0.000  0.000  0.000  0.000  0.000  0.028
   25  0.001  0.003  0.001  0.006  0.000  0.000  0.000  0.000  0.000  0.011
   26  0.001  0.003  0.001  0.006  0.000  0.000  0.000  0.000  0.000  0.011
   27  0.000  0.003  0.000  0.001  0.000  0.000  0.000  0.000  0.000  0.005
   28  0.000  0.003  0.000  0.001  0.000  0.000  0.000  0.000  0.000  0.005
   29  0.001  0.008  0.001  0.000  0.000  0.000  0.000  0.000  0.000  0.011
   30  0.000  0.001  0.003  0.012  0.000  0.000  0.000  0.000  0.000  0.016
   31  0.000  0.001  0.003  0.012  0.000  0.000  0.000  0.000  0.000  0.016
   32  0.001  0.008  0.001  0.000  0.000  0.000  0.000  0.000  0.000  0.011
   33  0.001  0.003  0.001  0.006  0.000  0.000  0.000  0.000  0.000  0.011
   34  0.001  0.003  0.001  0.006  0.000  0.000  0.000  0.000  0.000  0.011
   35  0.000  0.021  0.000  0.007  0.000  0.000  0.000  0.000  0.000  0.028
   36  0.000  0.021  0.000  0.007  0.000  0.000  0.000  0.000  0.000  0.028
tot    0.086  0.185  0.030  0.130  0.065  0.002  0.040  0.001  0.083  0.623
 
band    31 # energy   -6.11207175 # occ.  1.00000000
 
ion      s     py     pz     px    dxy    dyz    dz2    dxz  x2-y2    tot
    1  0.000  0.000  0.000  0.000  0.000  0.007  0.000  0.022  0.000  0.029
    2  0.000  0.000  0.000  0.000  0.000  0.029  0.000  0.000  0.000  0.029
    3  0.000  0.000  0.000  0.000  0.000  0.029  0.000  0.000  0.000  0.029
    4  0.000  0.000  0.000  0.000  0.000  0.007  0.000  0.022  0.000  0.029
    5  0.000  0.000  0.000  0.000  0.000  0.029  0.000  0.000  0.000  0.029
    6  0.000  0.000  0.000  0.000  0.000  0.007  0.000  0.022  0.000  0.029
    7  0.000  0.000  0.000  0.000  0.000  0.007  0.000  0.022  0.000  0.029
    8  0.000  0.000  0.000  0.000  0.000  0.007  0.000  0.022  0.000  0.029
    9  0.000  0.000  0.000  0.000  0.000  0.007  0.000  0.022  0.000  0.029
   10  0.000  0.000  0.000  0.000  0.000  0.029  0.000  0.000  0.000  0.029
   11  0.000  0.000  0.000  0.000  0.000  0.007  0.000  0.022  0.000  0.029
   12  0.000  0.000  0.000  0.000  0.000  0.007  0.000  0.022  0.000  0.029
   13  0.000  0.003  0.000  0.010  0.000  0.000  0.000  0.000  0.000  0.014
   14  0.000  0.014  0.000  0.000  0.000  0.000  0.000  0.000  0.000  0.014
   15  0.000  0.014  0.000  0.000  0.000  0.000  0.000  0.000  0.000  0.014
   16  0.000  0.003  0.000  0.010  0.000  0.000  0.000  0.000  0.000  0.014
   17  0.000  0.003  0.000  0.010  0.000  0.000  0.000  0.000  0.000  0.014
   18  0.000  0.003  0.000  0.010  0.000  0.000  0.000  0.000  0.000  0.014
   19  0.000  0.003  0.000  0.010  0.000  0.000  0.000  0.000  0.000  0.014
   20  0.000  0.003  0.000  0.010  0.000  0.000  0.000  0.000  0.000  0.014
   21  0.000  0.014  0.000  0.000  0.000  0.000  0.000  0.000  0.000  0.014
   22  0.000  0.014  0.000  0.000  0.000  0.000  0.000  0.000  0.000  0.014
   23  0.000  0.003  0.000  0.010  0.000  0.000  0.000  0.000  0.000  0.014
   24  0.000  0.003  0.000  0.010  0.000  0.000  0.000  0.000  0.000  0.014
   25  0.000  0.014  0.000  0.000  0.000  0.000  0.000  0.000  0.000  0.014
   26  0.000  0.014  0.000  0.000  0.000  0.000  0.000  0.000  0.000  0.014
   27  0.000  0.003  0.000  0.010  0.000  0.000  0.000  0.000  0.000  0.014
   28  0.000  0.003  0.000  0.010  0.000  0.000  0.000  0.000  0.000  0.014
   29  0.000  0.003  0.000  0.010  0.000  0.000  0.000  0.000  0.000  0.014
   30  0.000  0.003  0.000  0.010  0.000  0.000  0.000  0.000  0.000  0.014
   31  0.000  0.003  0.000  0.010  0.000  0.000  0.000  0.000  0.000  0.014
   32  0.000  0.003  0.000  0.010  0.000  0.000  0.000  0.000  0.000  0.014
   33  0.000  0.014  0.000  0.000  0.000  0.000  0.000  0.000  0.000  0.014
   34  0.000  0.014  0.000  0.000  0.000  0.000  0.000  0.000  0.000  0.014
   35  0.000  0.003  0.000  0.010  0.000  0.000  0.000  0.000  0.000  0.014
   36  0.000  0.003  0.000  0.010  0.000  0.000  0.000  0.000  0.000  0.014
tot    0.000  0.163  0.000  0.163  0.001  0.175  0.000  0.176  0.001  0.679
 
band    32 # energy   -6.11204307 # occ.  1.00000000
 
ion      s     py     pz     px    dxy    dyz    dz2    dxz  x2-y2    tot
    1  0.000  0.000  0.000  0.000  0.000  0.022  0.000  0.007  0.000  0.029
    2  0.000  0.000  0.000  0.000  0.000  0.000  0.000  0.029  0.000  0.029
    3  0.000  0.000  0.000  0.000  0.000  0.000  0.000  0.029  0.000  0.029
    4  0.000  0.000  0.000  0.000  0.000  0.021  0.000  0.007  0.000  0.029
    5  0.000  0.000  0.000  0.000  0.000  0.000  0.000  0.029  0.000  0.029
    6  0.000  0.000  0.000  0.000  0.000  0.022  0.000  0.007  0.000  0.029
    7  0.000  0.000  0.000  0.000  0.000  0.021  0.000  0.007  0.000  0.029
    8  0.000  0.000  0.000  0.000  0.000  0.022  0.000  0.007  0.000  0.029
    9  0.000  0.000  0.000  0.000  0.000  0.021  0.000  0.007  0.000  0.029
   10  0.000  0.000  0.000  0.000  0.000  0.000  0.000  0.029  0.000  0.029
   11  0.000  0.000  0.000  0.000  0.000  0.021  0.000  0.007  0.000  0.029
   12  0.000  0.000  0.000  0.000  0.000  0.022  0.000  0.007  0.000  0.029
   13  0.000  0.010  0.000  0.003  0.000  0.000  0.000  0.000  0.000  0.014
   14  0.000  0.000  0.000  0.014  0.000  0.000  0.000  0.000  0.000  0.014
   15  0.000  0.000  0.000  0.014  0.000  0.000  0.000  0.000  0.000  0.014
   16  0.000  0.010  0.000  0.003  0.000  0.000  0.000  0.000  0.000  0.014
   17  0.000  0.010  0.000  0.003  0.000  0.000  0.000  0.000  0.000  0.014
   18  0.000  0.010  0.000  0.003  0.000  0.000  0.000  0.000  0.000  0.014
   19  0.000  0.010  0.000  0.003  0.000  0.000  0.000  0.000  0.000  0.014
   20  0.000  0.010  0.000  0.003  0.000  0.000  0.000  0.000  0.000  0.014
   21  0.000  0.000  0.000  0.014  0.000  0.000  0.000  0.000  0.000  0.014
   22  0.000  0.000  0.000  0.014  0.000  0.000  0.000  0.000  0.000  0.014
   23  0.000  0.010  0.000  0.003  0.000  0.000  0.000  0.000  0.000  0.014
   24  0.000  0.010  0.000  0.003  0.000  0.000  0.000  0.000  0.000  0.014
   25  0.000  0.000  0.000  0.014  0.000  0.000  0.000  0.000  0.000  0.014
   26  0.000  0.000  0.000  0.014  0.000  0.000  0.000  0.000  0.000  0.014
   27  0.000  0.010  0.000  0.003  0.000  0.000  0.000  0.000  0.000  0.014
   28  0.000  0.010  0.000  0.003  0.000  0.000  0.000  0.000  0.000  0.014
   29  0.000  0.010  0.000  0.003  0.000  0.000  0.000  0.000  0.000  0.014
   30  0.000  0.010  0.000  0.003  0.000  0.000  0.000  0.000  0.000  0.014
   31  0.000  0.010  0.000  0.003  0.000  0.000  0.000  0.000  0.000  0.014
   32  0.000  0.010  0.000  0.003  0.000  0.000  0.000  0.000  0.000  0.014
   33  0.000  0.000  0.000  0.014  0.000  0.000  0.000  0.000  0.000  0.014
   34  0.000  0.000  0.000  0.014  0.000  0.000  0.000  0.000  0.000  0.014
   35  0.000  0.010  0.000  0.003  0.000  0.000  0.000  0.000  0.000  0.014
   36  0.000  0.010  0.000  0.003  0.000  0.000  0.000  0.000  0.000  0.014
tot    0.000  0.163  0.000  0.163  0.001  0.175  0.000  0.176  0.001  0.679
 
band    33 # energy   -5.86081195 # occ.  1.00000000
 
ion      s     py     pz     px    dxy    dyz    dz2    dxz  x2-y2    tot
    1  0.000  0.000  0.005  0.000  0.000  0.003  0.000  0.008  0.000  0.015
    2  0.000  0.000  0.005  0.000  0.000  0.003  0.000  0.008  0.000  0.015
    3  0.000  0.000  0.005  0.000  0.000  0.003  0.000  0.008  0.000  0.015
    4  0.000  0.000  0.005  0.000  0.000  0.003  0.000  0.008  0.000  0.015
    5  0.000  0.000  0.005  0.000  0.000  0.003  0.000  0.008  0.000  0.015
    6  0.000  0.000  0.005  0.000  0.000  0.003  0.000  0.008  0.000  0.015
    7  0.000  0.000  0.005  0.000  0.000  0.003  0.000  0.008  0.000  0.015
    8  0.000  0.000  0.005  0.000  0.000  0.003  0.000  0.008  0.000  0.015
    9  0.000  0.000  0.005  0.000  0.000  0.003  0.000  0.008  0.000  0.015
   10  0.000  0.000  0.005  0.000  0.000  0.003  0.000  0.008  0.000  0.015
   11  0.000  0.000  0.005  0.000  0.000  0.003  0.000  0.008  0.000  0.015
   12  0.000  0.000  0.005  0.000  0.000  0.003  0.000  0.008  0.000  0.015
   13  0.001  0.004  0.001  0.011  0.000  0.000  0.000  0.000  0.000  0.017
   14  0.001  0.004  0.001  0.011  0.000  0.000  0.000  0.000  0.000  0.017
   15  0.001  0.004  0.001  0.011  0.000  0.000  0.000  0.000  0.000  0.017
   16  0.001  0.004  0.001  0.011  0.000  0.000  0.000  0.000  0.000  0.017
   17  0.001  0.004  0.001  0.011  0.000  0.000  0.000  0.000  0.000  0.017
   18  0.001  0.004  0.001  0.011  0.000  0.000  0.000  0.000  0.000  0.017
   19  0.001  0.004  0.001  0.011  0.000  0.000  0.000  0.000  0.000  0.017
   20  0.001  0.004  0.001  0.011  0.000  0.000  0.000  0.000  0.000  0.017
   21  0.001  0.004  0.001  0.011  0.000  0.000  0.000  0.000  0.000  0.017
   22  0.001  0.004  0.001  0.011  0.000  0.000  0.000  0.000  0.000  0.017
   23  0.001  0.004  0.001  0.011  0.000  0.000  0.000  0.000  0.000  0.017
   24  0.001  0.004  0.001  0.011  0.000  0.000  0.000  0.000  0.000  0.017
   25  0.001  0.004  0.001  0.011  0.000  0.000  0.000  0.000  0.000  0.017
   26  0.001  0.004  0.001  0.011  0.000  0.000  0.000  0.000  0.000  0.017
   27  0.001  0.004  0.001  0.011  0.000  0.000  0.000  0.000  0.000  0.017
   28  0.001  0.004  0.001  0.011  0.000  0.000  0.000  0.000  0.000  0.017
   29  0.001  0.004  0.001  0.011  0.000  0.000  0.000  0.000  0.000  0.017
   30  0.001  0.004  0.001  0.011  0.000  0.000  0.000  0.000  0.000  0.017
   31  0.001  0.004  0.001  0.011  0.000  0.000  0.000  0.000  0.000  0.017
   32  0.001  0.004  0.001  0.011  0.000  0.000  0.000  0.000  0.000  0.017
   33  0.001  0.004  0.001  0.011  0.000  0.000  0.000  0.000  0.000  0.017
   34  0.001  0.004  0.001  0.011  0.000  0.000  0.000  0.000  0.000  0.017
   35  0.001  0.004  0.001  0.011  0.000  0.000  0.000  0.000  0.000  0.017
   36  0.001  0.004  0.001  0.011  0.000  0.000  0.000  0.000  0.000  0.017
tot    0.013  0.092  0.073  0.276  0.000  0.032  0.000  0.097  0.000  0.583
 
band    34 # energy   -5.76123646 # occ.  1.00000000
 
ion      s     py     pz     px    dxy    dyz    dz2    dxz  x2-y2    tot
    1  0.007  0.000  0.000  0.001  0.005  0.000  0.018  0.000  0.002  0.033
    2  0.001  0.001  0.000  0.002  0.013  0.000  0.000  0.000  0.004  0.021
    3  0.007  0.000  0.000  0.001  0.005  0.000  0.018  0.000  0.002  0.033
    4  0.007  0.000  0.000  0.001  0.005  0.000  0.018  0.000  0.002  0.033
    5  0.001  0.001  0.000  0.002  0.013  0.000  0.000  0.000  0.004  0.021
    6  0.001  0.001  0.000  0.002  0.013  0.000  0.000  0.000  0.004  0.021
    7  0.001  0.001  0.000  0.002  0.013  0.000  0.000  0.000  0.004  0.021
    8  0.001  0.001  0.000  0.002  0.013  0.000  0.000  0.000  0.004  0.021
    9  0.001  0.001  0.000  0.002  0.013  0.000  0.000  0.000  0.004  0.021
   10  0.007  0.000  0.000  0.001  0.005  0.000  0.018  0.000  0.002  0.033
   11  0.007  0.000  0.000  0.001  0.005  0.000  0.018  0.000  0.002  0.033
   12  0.007  0.000  0.000  0.001  0.005  0.000  0.018  0.000  0.002  0.033
   13  0.001  0.001  0.004  0.003  0.000  0.000  0.000  0.000  0.000  0.009
   14  0.001  0.001  0.004  0.003  0.000  0.000  0.000  0.000  0.000  0.009
   15  0.001  0.001  0.004  0.003  0.000  0.000  0.000  0.000  0.000  0.009
   16  0.000  0.000  0.017  0.000  0.000  0.000  0.001  0.000  0.000  0.018
   17  0.000  0.000  0.017  0.000  0.000  0.000  0.001  0.000  0.000  0.018
   18  0.001  0.001  0.004  0.003  0.000  0.000  0.000  0.000  0.000  0.009
   19  0.001  0.001  0.004  0.003  0.000  0.000  0.000  0.000  0.000  0.009
   20  0.001  0.001  0.004  0.003  0.000  0.000  0.000  0.000  0.000  0.009
   21  0.001  0.001  0.004  0.003  0.000  0.000  0.000  0.000  0.000  0.009
   22  0.001  0.001  0.004  0.003  0.000  0.000  0.000  0.000  0.000  0.009
   23  0.000  0.000  0.017  0.000  0.000  0.000  0.001  0.000  0.000  0.018
   24  0.000  0.000  0.017  0.000  0.000  0.000  0.001  0.000  0.000  0.018
   25  0.000  0.000  0.017  0.000  0.000  0.000  0.001  0.000  0.000  0.018
   26  0.000  0.000  0.017  0.000  0.000  0.000  0.001  0.000  0.000  0.018
   27  0.001  0.001  0.004  0.003  0.000  0.000  0.000  0.000  0.000  0.009
   28  0.001  0.001  0.004  0.003  0.000  0.000  0.000  0.000  0.000  0.009
   29  0.000  0.000  0.017  0.000  0.000  0.000  0.001  0.000  0.000  0.018
   30  0.001  0.001  0.004  0.003  0.000  0.000  0.000  0.000  0.000  0.009
   31  0.001  0.001  0.004  0.003  0.000  0.000  0.000  0.000  0.000  0.009
   32  0.000  0.000  0.017  0.000  0.000  0.000  0.001  0.000  0.000  0.018
   33  0.000  0.000  0.017  0.000  0.000  0.000  0.001  0.000  0.000  0.018
   34  0.000  0.000  0.017  0.000  0.000  0.000  0.001  0.000  0.000  0.018
   35  0.000  0.000  0.017  0.000  0.000  0.000  0.001  0.000  0.000  0.018
   36  0.000  0.000  0.017  0.000  0.000  0.000  0.001  0.000  0.000  0.018
tot    0.060  0.019  0.257  0.056  0.107  0.000  0.119  0.000  0.036  0.653
 
band    35 # energy   -5.76077602 # occ.  1.00000000
 
ion      s     py     pz     px    dxy    dyz    dz2    dxz  x2-y2    tot
    1  0.001  0.001  0.000  0.002  0.013  0.000  0.000  0.000  0.004  0.021
    2  0.007  0.000  0.000  0.001  0.005  0.000  0.018  0.000  0.002  0.033
    3  0.001  0.001  0.000  0.002  0.013  0.000  0.000  0.000  0.004  0.021
    4  0.001  0.001  0.000  0.002  0.013  0.000  0.000  0.000  0.004  0.021
    5  0.007  0.000  0.000  0.001  0.005  0.000  0.018  0.000  0.002  0.033
    6  0.007  0.000  0.000  0.001  0.005  0.000  0.018  0.000  0.002  0.033
    7  0.007  0.000  0.000  0.001  0.005  0.000  0.018  0.000  0.002  0.033
    8  0.007  0.000  0.000  0.001  0.005  0.000  0.018  0.000  0.002  0.033
    9  0.007  0.000  0.000  0.001  0.005  0.000  0.018  0.000  0.002  0.033
   10  0.001  0.001  0.000  0.002  0.013  0.000  0.000  0.000  0.004  0.021
   11  0.001  0.001  0.000  0.002  0.013  0.000  0.000  0.000  0.004  0.021
   12  0.001  0.001  0.000  0.002  0.013  0.000  0.000  0.000  0.004  0.021
   13  0.000  0.000  0.017  0.000  0.000  0.000  0.001  0.000  0.000  0.018
   14  0.000  0.000  0.017  0.000  0.000  0.000  0.001  0.000  0.000  0.018
   15  0.000  0.000  0.017  0.000  0.000  0.000  0.001  0.000  0.000  0.018
   16  0.001  0.001  0.004  0.003  0.000  0.000  0.000  0.000  0.000  0.009
   17  0.001  0.001  0.004  0.003  0.000  0.000  0.000  0.000  0.000  0.009
   18  0.000  0.000  0.017  0.000  0.000  0.000  0.001  0.000  0.000  0.018
   19  0.000  0.000  0.017  0.000  0.000  0.000  0.001  0.000  0.000  0.018
   20  0.000  0.000  0.017  0.000  0.000  0.000  0.001  0.000  0.000  0.018
   21  0.000  0.000  0.017  0.000  0.000  0.000  0.001  0.000  0.000  0.018
   22  0.000  0.000  0.017  0.000  0.000  0.000  0.001  0.000  0.000  0.018
   23  0.001  0.001  0.004  0.003  0.000  0.000  0.000  0.000  0.000  0.009
   24  0.001  0.001  0.004  0.003  0.000  0.000  0.000  0.000  0.000  0.009
   25  0.001  0.001  0.004  0.003  0.000  0.000  0.000  0.000  0.000  0.009
   26  0.001  0.001  0.004  0.003  0.000  0.000  0.000  0.000  0.000  0.009
   27  0.000  0.000  0.017  0.000  0.000  0.000  0.001  0.000  0.000  0.018
   28  0.000  0.000  0.017  0.000  0.000  0.000  0.001  0.000  0.000  0.018
   29  0.001  0.001  0.004  0.003  0.000  0.000  0.000  0.000  0.000  0.009
   30  0.000  0.000  0.017  0.000  0.000  0.000  0.001  0.000  0.000  0.018
   31  0.000  0.000  0.017  0.000  0.000  0.000  0.001  0.000  0.000  0.018
   32  0.001  0.001  0.004  0.003  0.000  0.000  0.000  0.000  0.000  0.009
   33  0.001  0.001  0.004  0.003  0.000  0.000  0.000  0.000  0.000  0.009
   34  0.001  0.001  0.004  0.003  0.000  0.000  0.000  0.000  0.000  0.009
   35  0.001  0.001  0.004  0.003  0.000  0.000  0.000  0.000  0.000  0.009
   36  0.001  0.001  0.004  0.003  0.000  0.000  0.000  0.000  0.000  0.009
tot    0.060  0.019  0.257  0.056  0.107  0.000  0.119  0.000  0.036  0.654
 
band    36 # energy   -5.66842539 # occ.  1.00000000
 
ion      s     py     pz     px    dxy    dyz    dz2    dxz  x2-y2    tot
    1  0.000  0.001  0.000  0.002  0.009  0.000  0.004  0.000  0.015  0.032
    2  0.000  0.003  0.000  0.000  0.003  0.000  0.004  0.000  0.020  0.031
    3  0.000  0.003  0.000  0.000  0.003  0.000  0.004  0.000  0.020  0.032
    4  0.001  0.001  0.000  0.002  0.001  0.000  0.017  0.000  0.000  0.022
    5  0.000  0.003  0.000  0.000  0.003  0.000  0.004  0.000  0.020  0.031
    6  0.000  0.001  0.000  0.002  0.009  0.000  0.004  0.000  0.015  0.031
    7  0.001  0.001  0.000  0.002  0.001  0.000  0.017  0.000  0.000  0.021
    8  0.000  0.001  0.000  0.002  0.009  0.000  0.004  0.000  0.015  0.031
    9  0.001  0.001  0.000  0.002  0.001  0.000  0.017  0.000  0.000  0.021
   10  0.000  0.003  0.000  0.000  0.003  0.000  0.004  0.000  0.020  0.032
   11  0.001  0.001  0.000  0.002  0.001  0.000  0.017  0.000  0.000  0.022
   12  0.000  0.001  0.000  0.002  0.009  0.000  0.004  0.000  0.015  0.032
   13  0.000  0.000  0.016  0.000  0.000  0.000  0.001  0.000  0.000  0.017
   14  0.000  0.005  0.004  0.002  0.000  0.000  0.000  0.000  0.000  0.012
   15  0.000  0.005  0.004  0.002  0.000  0.000  0.000  0.000  0.000  0.012
   16  0.000  0.006  0.004  0.002  0.000  0.000  0.000  0.000  0.000  0.012
   17  0.000  0.006  0.004  0.002  0.000  0.000  0.000  0.000  0.000  0.012
   18  0.000  0.005  0.004  0.002  0.000  0.000  0.000  0.000  0.000  0.012
   19  0.000  0.005  0.004  0.002  0.000  0.000  0.000  0.000  0.000  0.012
   20  0.000  0.000  0.016  0.000  0.000  0.000  0.001  0.000  0.000  0.017
   21  0.000  0.005  0.004  0.002  0.000  0.000  0.000  0.000  0.000  0.012
   22  0.000  0.005  0.004  0.002  0.000  0.000  0.000  0.000  0.000  0.012
   23  0.000  0.000  0.016  0.000  0.000  0.000  0.001  0.000  0.000  0.017
   24  0.000  0.000  0.016  0.000  0.000  0.000  0.001  0.000  0.000  0.017
   25  0.000  0.005  0.004  0.002  0.000  0.000  0.000  0.000  0.000  0.012
   26  0.000  0.005  0.004  0.002  0.000  0.000  0.000  0.000  0.000  0.012
   27  0.000  0.000  0.016  0.000  0.000  0.000  0.001  0.000  0.000  0.017
   28  0.000  0.000  0.016  0.000  0.000  0.000  0.001  0.000  0.000  0.017
   29  0.000  0.006  0.004  0.002  0.000  0.000  0.000  0.000  0.000  0.012
   30  0.000  0.005  0.004  0.002  0.000  0.000  0.000  0.000  0.000  0.012
   31  0.000  0.005  0.004  0.002  0.000  0.000  0.000  0.000  0.000  0.012
   32  0.000  0.006  0.004  0.002  0.000  0.000  0.000  0.000  0.000  0.012
   33  0.000  0.005  0.004  0.002  0.000  0.000  0.000  0.000  0.000  0.012
   34  0.000  0.005  0.004  0.002  0.000  0.000  0.000  0.000  0.000  0.012
   35  0.000  0.000  0.016  0.000  0.000  0.000  0.001  0.000  0.000  0.017
   36  0.000  0.000  0.016  0.000  0.000  0.000  0.001  0.000  0.000  0.017
tot    0.005  0.108  0.198  0.046  0.054  0.000  0.110  0.000  0.143  0.664
 
band    37 # energy   -5.66829647 # occ.  1.00000000
 
ion      s     py     pz     px    dxy    dyz    dz2    dxz  x2-y2    tot
    1  0.000  0.002  0.000  0.000  0.000  0.000  0.013  0.000  0.009  0.025
    2  0.001  0.000  0.000  0.003  0.006  0.000  0.012  0.000  0.003  0.025
    3  0.000  0.000  0.000  0.003  0.006  0.000  0.013  0.000  0.003  0.025
    4  0.000  0.003  0.000  0.001  0.008  0.000  0.000  0.000  0.023  0.035
    5  0.001  0.000  0.000  0.003  0.006  0.000  0.012  0.000  0.003  0.025
    6  0.001  0.002  0.000  0.000  0.000  0.000  0.012  0.000  0.009  0.025
    7  0.000  0.003  0.000  0.001  0.008  0.000  0.000  0.000  0.023  0.035
    8  0.001  0.002  0.000  0.000  0.000  0.000  0.012  0.000  0.009  0.025
    9  0.000  0.003  0.000  0.001  0.008  0.000  0.000  0.000  0.023  0.035
   10  0.000  0.000  0.000  0.003  0.006  0.000  0.013  0.000  0.003  0.025
   11  0.000  0.003  0.000  0.001  0.008  0.000  0.000  0.000  0.023  0.035
   12  0.000  0.002  0.000  0.000  0.000  0.000  0.013  0.000  0.009  0.025
   13  0.000  0.007  0.000  0.002  0.000  0.000  0.000  0.000  0.000  0.010
   14  0.000  0.002  0.012  0.001  0.000  0.000  0.001  0.000  0.000  0.015
   15  0.000  0.002  0.012  0.001  0.000  0.000  0.001  0.000  0.000  0.015
   16  0.000  0.002  0.012  0.001  0.000  0.000  0.001  0.000  0.000  0.016
   17  0.000  0.002  0.012  0.001  0.000  0.000  0.001  0.000  0.000  0.016
   18  0.000  0.002  0.012  0.001  0.000  0.000  0.001  0.000  0.000  0.015
   19  0.000  0.002  0.012  0.001  0.000  0.000  0.001  0.000  0.000  0.015
   20  0.000  0.007  0.000  0.002  0.000  0.000  0.000  0.000  0.000  0.010
   21  0.000  0.002  0.012  0.001  0.000  0.000  0.001  0.000  0.000  0.015
   22  0.000  0.002  0.012  0.001  0.000  0.000  0.001  0.000  0.000  0.015
   23  0.000  0.007  0.000  0.002  0.000  0.000  0.000  0.000  0.000  0.010
   24  0.000  0.007  0.000  0.002  0.000  0.000  0.000  0.000  0.000  0.010
   25  0.000  0.002  0.012  0.000  0.000  0.000  0.001  0.000  0.000  0.016
   26  0.000  0.002  0.012  0.000  0.000  0.000  0.001  0.000  0.000  0.016
   27  0.000  0.007  0.000  0.002  0.000  0.000  0.000  0.000  0.000  0.010
   28  0.000  0.007  0.000  0.002  0.000  0.000  0.000  0.000  0.000  0.010
   29  0.000  0.002  0.012  0.001  0.000  0.000  0.001  0.000  0.000  0.016
   30  0.000  0.002  0.012  0.001  0.000  0.000  0.001  0.000  0.000  0.015
   31  0.000  0.002  0.012  0.001  0.000  0.000  0.001  0.000  0.000  0.015
   32  0.000  0.002  0.012  0.001  0.000  0.000  0.001  0.000  0.000  0.016
   33  0.000  0.002  0.012  0.000  0.000  0.000  0.001  0.000  0.000  0.016
   34  0.000  0.002  0.012  0.000  0.000  0.000  0.001  0.000  0.000  0.016
   35  0.000  0.007  0.000  0.002  0.000  0.000  0.000  0.000  0.000  0.010
   36  0.000  0.007  0.000  0.002  0.000  0.000  0.000  0.000  0.000  0.010
tot    0.005  0.108  0.197  0.046  0.054  0.000  0.110  0.000  0.143  0.664
 
band    38 # energy   -5.61325690 # occ.  1.00000000
 
ion      s     py     pz     px    dxy    dyz    dz2    dxz  x2-y2    tot
    1  0.006  0.000  0.000  0.000  0.000  0.000  0.005  0.000  0.000  0.011
    2  0.006  0.000  0.000  0.000  0.000  0.000  0.005  0.000  0.000  0.011
    3  0.006  0.000  0.000  0.000  0.000  0.000  0.005  0.000  0.000  0.011
    4  0.024  0.000  0.000  0.000  0.000  0.000  0.021  0.000  0.000  0.044
    5  0.006  0.000  0.000  0.000  0.000  0.000  0.005  0.000  0.000  0.011
    6  0.006  0.000  0.000  0.000  0.000  0.000  0.005  0.000  0.000  0.011
    7  0.023  0.000  0.000  0.000  0.000  0.000  0.021  0.000  0.000  0.045
    8  0.006  0.000  0.000  0.000  0.000  0.000  0.005  0.000  0.000  0.011
    9  0.023  0.000  0.000  0.000  0.000  0.000  0.021  0.000  0.000  0.045
   10  0.006  0.000  0.000  0.000  0.000  0.000  0.005  0.000  0.000  0.011
   11  0.024  0.000  0.000  0.000  0.000  0.000  0.021  0.000  0.000  0.044
   12  0.006  0.000  0.000  0.000  0.000  0.000  0.005  0.000  0.000  0.011
   13  0.000  0.004  0.000  0.011  0.000  0.000  0.000  0.000  0.000  0.015
   14  0.000  0.004  0.000  0.012  0.000  0.000  0.000  0.000  0.000  0.016
   15  0.000  0.004  0.000  0.012  0.000  0.000  0.000  0.000  0.000  0.016
   16  0.000  0.015  0.000  0.000  0.000  0.000  0.000  0.000  0.000  0.016
   17  0.000  0.015  0.000  0.000  0.000  0.000  0.000  0.000  0.000  0.016
   18  0.000  0.016  0.000  0.000  0.000  0.000  0.000  0.000  0.000  0.016
   19  0.000  0.016  0.000  0.000  0.000  0.000  0.000  0.000  0.000  0.016
   20  0.000  0.004  0.000  0.011  0.000  0.000  0.000  0.000  0.000  0.015
   21  0.000  0.004  0.000  0.012  0.000  0.000  0.000  0.000  0.000  0.016
   22  0.000  0.004  0.000  0.012  0.000  0.000  0.000  0.000  0.000  0.016
   23  0.000  0.004  0.000  0.011  0.000  0.000  0.000  0.000  0.000  0.015
   24  0.000  0.004  0.000  0.011  0.000  0.000  0.000  0.000  0.000  0.015
   25  0.000  0.004  0.000  0.011  0.000  0.000  0.000  0.000  0.000  0.016
   26  0.000  0.004  0.000  0.011  0.000  0.000  0.000  0.000  0.000  0.016
   27  0.000  0.004  0.000  0.011  0.000  0.000  0.000  0.000  0.000  0.015
   28  0.000  0.004  0.000  0.011  0.000  0.000  0.000  0.000  0.000  0.015
   29  0.000  0.015  0.000  0.000  0.000  0.000  0.000  0.000  0.000  0.016
   30  0.000  0.016  0.000  0.000  0.000  0.000  0.000  0.000  0.000  0.016
   31  0.000  0.016  0.000  0.000  0.000  0.000  0.000  0.000  0.000  0.016
   32  0.000  0.015  0.000  0.000  0.000  0.000  0.000  0.000  0.000  0.016
   33  0.000  0.004  0.000  0.011  0.000  0.000  0.000  0.000  0.000  0.016
   34  0.000  0.004  0.000  0.011  0.000  0.000  0.000  0.000  0.000  0.016
   35  0.000  0.004  0.000  0.011  0.000  0.000  0.000  0.000  0.000  0.015
   36  0.000  0.004  0.000  0.011  0.000  0.000  0.000  0.000  0.000  0.015
tot    0.141  0.186  0.000  0.181  0.004  0.001  0.126  0.001  0.004  0.645
 
band    39 # energy   -5.61249809 # occ.  1.00000000
 
ion      s     py     pz     px    dxy    dyz    dz2    dxz  x2-y2    tot
    1  0.018  0.000  0.000  0.000  0.000  0.000  0.016  0.000  0.000  0.033
    2  0.018  0.000  0.000  0.000  0.000  0.000  0.016  0.000  0.000  0.034
    3  0.018  0.000  0.000  0.000  0.000  0.000  0.016  0.000  0.000  0.033
    4  0.000  0.000  0.000  0.000  0.000  0.000  0.000  0.000  0.000  0.000
    5  0.018  0.000  0.000  0.000  0.000  0.000  0.016  0.000  0.000  0.034
    6  0.018  0.000  0.000  0.000  0.000  0.000  0.016  0.000  0.000  0.034
    7  0.000  0.000  0.000  0.000  0.000  0.000  0.000  0.000  0.000  0.000
    8  0.018  0.000  0.000  0.000  0.000  0.000  0.016  0.000  0.000  0.034
    9  0.000  0.000  0.000  0.000  0.000  0.000  0.000  0.000  0.000  0.000
   10  0.018  0.000  0.000  0.000  0.000  0.000  0.016  0.000  0.000  0.033
   11  0.000  0.000  0.000  0.000  0.000  0.000  0.000  0.000  0.000  0.000
   12  0.018  0.000  0.000  0.000  0.000  0.000  0.016  0.000  0.000  0.033
   13  0.000  0.012  0.000  0.004  0.000  0.000  0.000  0.000  0.000  0.016
   14  0.000  0.012  0.000  0.004  0.000  0.000  0.000  0.000  0.000  0.016
   15  0.000  0.012  0.000  0.004  0.000  0.000  0.000  0.000  0.000  0.016
   16  0.000  0.000  0.000  0.015  0.000  0.000  0.000  0.000  0.000  0.015
   17  0.000  0.000  0.000  0.015  0.000  0.000  0.000  0.000  0.000  0.015
   18  0.000  0.000  0.000  0.015  0.000  0.000  0.000  0.000  0.000  0.016
   19  0.000  0.000  0.000  0.015  0.000  0.000  0.000  0.000  0.000  0.016
   20  0.000  0.012  0.000  0.004  0.000  0.000  0.000  0.000  0.000  0.016
   21  0.000  0.012  0.000  0.004  0.000  0.000  0.000  0.000  0.000  0.016
   22  0.000  0.012  0.000  0.004  0.000  0.000  0.000  0.000  0.000  0.016
   23  0.000  0.012  0.000  0.004  0.000  0.000  0.000  0.000  0.000  0.016
   24  0.000  0.012  0.000  0.004  0.000  0.000  0.000  0.000  0.000  0.016
   25  0.000  0.011  0.000  0.004  0.000  0.000  0.000  0.000  0.000  0.015
   26  0.000  0.011  0.000  0.004  0.000  0.000  0.000  0.000  0.000  0.015
   27  0.000  0.012  0.000  0.004  0.000  0.000  0.000  0.000  0.000  0.016
   28  0.000  0.012  0.000  0.004  0.000  0.000  0.000  0.000  0.000  0.016
   29  0.000  0.000  0.000  0.015  0.000  0.000  0.000  0.000  0.000  0.015
   30  0.000  0.000  0.000  0.015  0.000  0.000  0.000  0.000  0.000  0.016
   31  0.000  0.000  0.000  0.015  0.000  0.000  0.000  0.000  0.000  0.016
   32  0.000  0.000  0.000  0.015  0.000  0.000  0.000  0.000  0.000  0.015
   33  0.000  0.011  0.000  0.004  0.000  0.000  0.000  0.000  0.000  0.015
   34  0.000  0.011  0.000  0.004  0.000  0.000  0.000  0.000  0.000  0.015
   35  0.000  0.012  0.000  0.004  0.000  0.000  0.000  0.000  0.000  0.016
   36  0.000  0.012  0.000  0.004  0.000  0.000  0.000  0.000  0.000  0.016
tot    0.141  0.186  0.000  0.181  0.004  0.001  0.126  0.001  0.004  0.645
 
band    40 # energy   -5.43248593 # occ.  1.00000000
 
ion      s     py     pz     px    dxy    dyz    dz2    dxz  x2-y2    tot
    1  0.000  0.000  0.002  0.000  0.000  0.027  0.000  0.017  0.000  0.046
    2  0.000  0.000  0.001  0.000  0.000  0.002  0.000  0.002  0.000  0.005
    3  0.000  0.000  0.002  0.000  0.000  0.039  0.000  0.006  0.000  0.046
    4  0.000  0.000  0.007  0.000  0.000  0.001  0.000  0.003  0.000  0.011
    5  0.000  0.000  0.001  0.000  0.000  0.002  0.000  0.002  0.000  0.005
    6  0.000  0.000  0.001  0.000  0.000  0.003  0.000  0.000  0.000  0.005
    7  0.000  0.000  0.005  0.000  0.000  0.000  0.000  0.001  0.000  0.006
    8  0.000  0.000  0.001  0.000  0.000  0.003  0.000  0.000  0.000  0.005
    9  0.000  0.000  0.005  0.000  0.000  0.000  0.000  0.001  0.000  0.006
   10  0.000  0.000  0.002  0.000  0.000  0.039  0.000  0.006  0.000  0.046
   11  0.000  0.000  0.007  0.000  0.000  0.001  0.000  0.003  0.000  0.011
   12  0.000  0.000  0.002  0.000  0.000  0.027  0.000  0.017  0.000  0.046
   13  0.002  0.002  0.001  0.006  0.000  0.000  0.000  0.000  0.000  0.011
   14  0.001  0.002  0.000  0.006  0.000  0.000  0.000  0.000  0.000  0.009
   15  0.001  0.002  0.000  0.006  0.000  0.000  0.000  0.000  0.000  0.009
   16  0.000  0.012  0.001  0.014  0.000  0.000  0.000  0.000  0.000  0.028
   17  0.000  0.012  0.001  0.014  0.000  0.000  0.000  0.000  0.000  0.028
   18  0.001  0.008  0.000  0.000  0.000  0.000  0.000  0.000  0.000  0.009
   19  0.001  0.008  0.000  0.000  0.000  0.000  0.000  0.000  0.000  0.009
   20  0.002  0.002  0.001  0.006  0.000  0.000  0.000  0.000  0.000  0.011
   21  0.001  0.002  0.000  0.006  0.000  0.000  0.000  0.000  0.000  0.009
   22  0.001  0.002  0.000  0.006  0.000  0.000  0.000  0.000  0.000  0.009
   23  0.000  0.002  0.004  0.007  0.000  0.000  0.000  0.000  0.000  0.014
   24  0.000  0.002  0.004  0.007  0.000  0.000  0.000  0.000  0.000  0.014
   25  0.000  0.025  0.001  0.001  0.000  0.000  0.000  0.000  0.000  0.028
   26  0.000  0.025  0.001  0.001  0.000  0.000  0.000  0.000  0.000  0.028
   27  0.002  0.002  0.001  0.006  0.000  0.000  0.000  0.000  0.000  0.011
   28  0.002  0.002  0.001  0.006  0.000  0.000  0.000  0.000  0.000  0.011
   29  0.000  0.012  0.001  0.014  0.000  0.000  0.000  0.000  0.000  0.028
   30  0.001  0.008  0.000  0.000  0.000  0.000  0.000  0.000  0.000  0.009
   31  0.001  0.008  0.000  0.000  0.000  0.000  0.000  0.000  0.000  0.009
   32  0.000  0.012  0.001  0.014  0.000  0.000  0.000  0.000  0.000  0.028
   33  0.000  0.025  0.001  0.001  0.000  0.000  0.000  0.000  0.000  0.028
   34  0.000  0.025  0.001  0.001  0.000  0.000  0.000  0.000  0.000  0.028
   35  0.000  0.002  0.004  0.007  0.000  0.000  0.000  0.000  0.000  0.014
   36  0.000  0.002  0.004  0.007  0.000  0.000  0.000  0.000  0.000  0.014
tot    0.014  0.209  0.063  0.140  0.000  0.145  0.001  0.058  0.001  0.631
 
band    41 # energy   -5.43245443 # occ.  1.00000000
 
ion      s     py     pz     px    dxy    dyz    dz2    dxz  x2-y2    tot
    1  0.000  0.000  0.005  0.000  0.000  0.017  0.000  0.000  0.000  0.023
    2  0.000  0.000  0.004  0.000  0.000  0.002  0.000  0.000  0.000  0.005
    3  0.000  0.000  0.005  0.000  0.000  0.006  0.000  0.011  0.000  0.022
    4  0.000  0.000  0.000  0.000  0.000  0.043  0.000  0.015  0.000  0.058
    5  0.000  0.000  0.004  0.000  0.000  0.002  0.000  0.000  0.000  0.005
    6  0.000  0.000  0.003  0.000  0.000  0.000  0.000  0.001  0.000  0.005
    7  0.000  0.000  0.000  0.000  0.000  0.003  0.000  0.001  0.000  0.004
    8  0.000  0.000  0.003  0.000  0.000  0.000  0.000  0.001  0.000  0.005
    9  0.000  0.000  0.000  0.000  0.000  0.003  0.000  0.001  0.000  0.004
   10  0.000  0.000  0.005  0.000  0.000  0.006  0.000  0.011  0.000  0.022
   11  0.000  0.000  0.000  0.000  0.000  0.043  0.000  0.015  0.000  0.058
   12  0.000  0.000  0.005  0.000  0.000  0.017  0.000  0.000  0.000  0.023
   13  0.000  0.006  0.000  0.002  0.000  0.000  0.000  0.000  0.000  0.009
   14  0.002  0.006  0.000  0.002  0.000  0.000  0.000  0.000  0.000  0.010
   15  0.002  0.006  0.000  0.002  0.000  0.000  0.000  0.000  0.000  0.010
   16  0.000  0.014  0.003  0.001  0.000  0.000  0.000  0.000  0.000  0.019
   17  0.000  0.014  0.003  0.001  0.000  0.000  0.000  0.000  0.000  0.018
   18  0.002  0.000  0.000  0.008  0.000  0.000  0.000  0.000  0.000  0.010
   19  0.002  0.000  0.000  0.008  0.000  0.000  0.000  0.000  0.000  0.010
   20  0.000  0.006  0.000  0.002  0.000  0.000  0.000  0.000  0.000  0.009
   21  0.002  0.006  0.000  0.002  0.000  0.000  0.000  0.000  0.000  0.010
   22  0.002  0.006  0.000  0.002  0.000  0.000  0.000  0.000  0.000  0.010
   23  0.000  0.024  0.000  0.008  0.000  0.000  0.000  0.000  0.000  0.032
   24  0.000  0.024  0.000  0.008  0.000  0.000  0.000  0.000  0.000  0.032
   25  0.000  0.001  0.003  0.014  0.000  0.000  0.000  0.000  0.000  0.019
   26  0.000  0.001  0.003  0.014  0.000  0.000  0.000  0.000  0.000  0.019
   27  0.000  0.006  0.000  0.002  0.000  0.000  0.000  0.000  0.000  0.009
   28  0.000  0.006  0.000  0.002  0.000  0.000  0.000  0.000  0.000  0.009
   29  0.000  0.014  0.003  0.001  0.000  0.000  0.000  0.000  0.000  0.019
   30  0.002  0.000  0.000  0.008  0.000  0.000  0.000  0.000  0.000  0.010
   31  0.002  0.000  0.000  0.008  0.000  0.000  0.000  0.000  0.000  0.010
   32  0.000  0.014  0.003  0.001  0.000  0.000  0.000  0.000  0.000  0.018
   33  0.000  0.001  0.003  0.014  0.000  0.000  0.000  0.000  0.000  0.019
   34  0.000  0.001  0.003  0.014  0.000  0.000  0.000  0.000  0.000  0.019
   35  0.000  0.024  0.000  0.008  0.000  0.000  0.000  0.000  0.000  0.032
   36  0.000  0.024  0.000  0.008  0.000  0.000  0.000  0.000  0.000  0.032
tot    0.014  0.209  0.063  0.140  0.000  0.145  0.001  0.058  0.001  0.631
 
band    42 # energy   -5.43195685 # occ.  1.00000000
 
ion      s     py     pz     px    dxy    dyz    dz2    dxz  x2-y2    tot
    1  0.000  0.000  0.001  0.000  0.000  0.003  0.000  0.000  0.000  0.005
    2  0.000  0.000  0.002  0.000  0.000  0.038  0.000  0.006  0.000  0.046
    3  0.000  0.000  0.001  0.000  0.000  0.002  0.000  0.002  0.000  0.005
    4  0.000  0.000  0.005  0.000  0.000  0.000  0.000  0.001  0.000  0.006
    5  0.000  0.000  0.002  0.000  0.000  0.038  0.000  0.006  0.000  0.046
    6  0.000  0.000  0.002  0.000  0.000  0.028  0.000  0.017  0.000  0.046
    7  0.000  0.000  0.007  0.000  0.000  0.001  0.000  0.003  0.000  0.011
    8  0.000  0.000  0.002  0.000  0.000  0.028  0.000  0.017  0.000  0.046
    9  0.000  0.000  0.007  0.000  0.000  0.001  0.000  0.003  0.000  0.011
   10  0.000  0.000  0.001  0.000  0.000  0.002  0.000  0.002  0.000  0.005
   11  0.000  0.000  0.005  0.000  0.000  0.000  0.000  0.001  0.000  0.006
   12  0.000  0.000  0.001  0.000  0.000  0.003  0.000  0.000  0.000  0.005
   13  0.000  0.002  0.004  0.007  0.000  0.000  0.000  0.000  0.000  0.014
   14  0.000  0.025  0.001  0.001  0.000  0.000  0.000  0.000  0.000  0.028
   15  0.000  0.025  0.001  0.001  0.000  0.000  0.000  0.000  0.000  0.028
   16  0.001  0.008  0.000  0.000  0.000  0.000  0.000  0.000  0.000  0.009
   17  0.001  0.008  0.000  0.000  0.000  0.000  0.000  0.000  0.000  0.009
   18  0.000  0.012  0.001  0.014  0.000  0.000  0.000  0.000  0.000  0.028
   19  0.000  0.012  0.001  0.014  0.000  0.000  0.000  0.000  0.000  0.028
   20  0.000  0.002  0.004  0.007  0.000  0.000  0.000  0.000  0.000  0.014
   21  0.000  0.025  0.001  0.001  0.000  0.000  0.000  0.000  0.000  0.028
   22  0.000  0.025  0.001  0.001  0.000  0.000  0.000  0.000  0.000  0.028
   23  0.002  0.002  0.001  0.006  0.000  0.000  0.000  0.000  0.000  0.011
   24  0.002  0.002  0.001  0.006  0.000  0.000  0.000  0.000  0.000  0.011
   25  0.001  0.002  0.000  0.006  0.000  0.000  0.000  0.000  0.000  0.009
   26  0.001  0.002  0.000  0.006  0.000  0.000  0.000  0.000  0.000  0.009
   27  0.000  0.002  0.004  0.007  0.000  0.000  0.000  0.000  0.000  0.014
   28  0.000  0.002  0.004  0.007  0.000  0.000  0.000  0.000  0.000  0.014
   29  0.001  0.008  0.000  0.000  0.000  0.000  0.000  0.000  0.000  0.009
   30  0.000  0.012  0.001  0.014  0.000  0.000  0.000  0.000  0.000  0.028
   31  0.000  0.012  0.001  0.014  0.000  0.000  0.000  0.000  0.000  0.028
   32  0.001  0.008  0.000  0.000  0.000  0.000  0.000  0.000  0.000  0.009
   33  0.001  0.002  0.000  0.006  0.000  0.000  0.000  0.000  0.000  0.009
   34  0.001  0.002  0.000  0.006  0.000  0.000  0.000  0.000  0.000  0.009
   35  0.002  0.002  0.001  0.006  0.000  0.000  0.000  0.000  0.000  0.011
   36  0.002  0.002  0.001  0.006  0.000  0.000  0.000  0.000  0.000  0.011
tot    0.014  0.209  0.063  0.140  0.000  0.145  0.001  0.058  0.001  0.631
 
band    43 # energy   -5.43192349 # occ.  1.00000000
 
ion      s     py     pz     px    dxy    dyz    dz2    dxz  x2-y2    tot
    1  0.000  0.000  0.004  0.000  0.000  0.000  0.000  0.001  0.000  0.005
    2  0.000  0.000  0.005  0.000  0.000  0.006  0.000  0.011  0.000  0.023
    3  0.000  0.000  0.003  0.000  0.000  0.002  0.000  0.000  0.000  0.005
    4  0.000  0.000  0.000  0.000  0.000  0.003  0.000  0.001  0.000  0.004
    5  0.000  0.000  0.005  0.000  0.000  0.006  0.000  0.011  0.000  0.023
    6  0.000  0.000  0.005  0.000  0.000  0.017  0.000  0.000  0.000  0.022
    7  0.000  0.000  0.000  0.000  0.000  0.044  0.000  0.014  0.000  0.058
    8  0.000  0.000  0.005  0.000  0.000  0.017  0.000  0.000  0.000  0.022
    9  0.000  0.000  0.000  0.000  0.000  0.044  0.000  0.014  0.000  0.058
   10  0.000  0.000  0.003  0.000  0.000  0.002  0.000  0.000  0.000  0.005
   11  0.000  0.000  0.000  0.000  0.000  0.003  0.000  0.001  0.000  0.004
   12  0.000  0.000  0.004  0.000  0.000  0.000  0.000  0.001  0.000  0.005
   13  0.000  0.024  0.000  0.008  0.000  0.000  0.000  0.000  0.000  0.032
   14  0.000  0.001  0.003  0.014  0.000  0.000  0.000  0.000  0.000  0.018
   15  0.000  0.001  0.003  0.014  0.000  0.000  0.000  0.000  0.000  0.018
   16  0.002  0.000  0.000  0.008  0.000  0.000  0.000  0.000  0.000  0.010
   17  0.002  0.000  0.000  0.008  0.000  0.000  0.000  0.000  0.000  0.010
   18  0.000  0.015  0.003  0.001  0.000  0.000  0.000  0.000  0.000  0.019
   19  0.000  0.015  0.003  0.001  0.000  0.000  0.000  0.000  0.000  0.019
   20  0.000  0.024  0.000  0.008  0.000  0.000  0.000  0.000  0.000  0.032
   21  0.000  0.001  0.003  0.014  0.000  0.000  0.000  0.000  0.000  0.018
   22  0.000  0.001  0.003  0.014  0.000  0.000  0.000  0.000  0.000  0.018
   23  0.000  0.006  0.000  0.002  0.000  0.000  0.000  0.000  0.000  0.009
   24  0.000  0.006  0.000  0.002  0.000  0.000  0.000  0.000  0.000  0.009
   25  0.002  0.006  0.000  0.002  0.000  0.000  0.000  0.000  0.000  0.010
   26  0.002  0.006  0.000  0.002  0.000  0.000  0.000  0.000  0.000  0.010
   27  0.000  0.024  0.000  0.008  0.000  0.000  0.000  0.000  0.000  0.032
   28  0.000  0.024  0.000  0.008  0.000  0.000  0.000  0.000  0.000  0.032
   29  0.002  0.000  0.000  0.008  0.000  0.000  0.000  0.000  0.000  0.010
   30  0.000  0.015  0.003  0.001  0.000  0.000  0.000  0.000  0.000  0.019
   31  0.000  0.015  0.003  0.001  0.000  0.000  0.000  0.000  0.000  0.019
   32  0.002  0.000  0.000  0.008  0.000  0.000  0.000  0.000  0.000  0.010
   33  0.002  0.006  0.000  0.002  0.000  0.000  0.000  0.000  0.000  0.010
   34  0.002  0.006  0.000  0.002  0.000  0.000  0.000  0.000  0.000  0.010
   35  0.000  0.006  0.000  0.002  0.000  0.000  0.000  0.000  0.000  0.009
   36  0.000  0.006  0.000  0.002  0.000  0.000  0.000  0.000  0.000  0.009
tot    0.014  0.209  0.063  0.140  0.000  0.145  0.001  0.058  0.001  0.631
 
band    44 # energy   -5.07997775 # occ.  1.00000000
 
ion      s     py     pz     px    dxy    dyz    dz2    dxz  x2-y2    tot
    1  0.000  0.002  0.000  0.006  0.004  0.000  0.000  0.000  0.001  0.013
    2  0.000  0.008  0.000  0.000  0.000  0.000  0.000  0.000  0.005  0.013
    3  0.000  0.008  0.000  0.000  0.000  0.000  0.000  0.000  0.005  0.013
    4  0.000  0.002  0.000  0.006  0.004  0.000  0.000  0.000  0.001  0.013
    5  0.000  0.008  0.000  0.000  0.000  0.000  0.000  0.000  0.005  0.013
    6  0.000  0.002  0.000  0.006  0.004  0.000  0.000  0.000  0.001  0.013
    7  0.000  0.002  0.000  0.006  0.004  0.000  0.000  0.000  0.001  0.013
    8  0.000  0.002  0.000  0.006  0.004  0.000  0.000  0.000  0.001  0.013
    9  0.000  0.002  0.000  0.006  0.004  0.000  0.000  0.000  0.001  0.013
   10  0.000  0.008  0.000  0.000  0.000  0.000  0.000  0.000  0.005  0.013
   11  0.000  0.002  0.000  0.006  0.004  0.000  0.000  0.000  0.001  0.013
   12  0.000  0.002  0.000  0.006  0.004  0.000  0.000  0.000  0.001  0.013
   13  0.000  0.004  0.000  0.011  0.000  0.000  0.000  0.000  0.000  0.015
   14  0.000  0.015  0.000  0.000  0.000  0.000  0.000  0.000  0.000  0.015
   15  0.000  0.015  0.000  0.000  0.000  0.000  0.000  0.000  0.000  0.015
   16  0.000  0.004  0.000  0.011  0.000  0.000  0.000  0.000  0.000  0.015
   17  0.000  0.004  0.000  0.011  0.000  0.000  0.000  0.000  0.000  0.015
   18  0.000  0.004  0.000  0.011  0.000  0.000  0.000  0.000  0.000  0.015
   19  0.000  0.004  0.000  0.011  0.000  0.000  0.000  0.000  0.000  0.015
   20  0.000  0.004  0.000  0.011  0.000  0.000  0.000  0.000  0.000  0.015
   21  0.000  0.015  0.000  0.000  0.000  0.000  0.000  0.000  0.000  0.015
   22  0.000  0.015  0.000  0.000  0.000  0.000  0.000  0.000  0.000  0.015
   23  0.000  0.004  0.000  0.011  0.000  0.000  0.000  0.000  0.000  0.015
   24  0.000  0.004  0.000  0.011  0.000  0.000  0.000  0.000  0.000  0.015
   25  0.000  0.014  0.000  0.000  0.000  0.000  0.000  0.000  0.000  0.015
   26  0.000  0.014  0.000  0.000  0.000  0.000  0.000  0.000  0.000  0.015
   27  0.000  0.004  0.000  0.011  0.000  0.000  0.000  0.000  0.000  0.015
   28  0.000  0.004  0.000  0.011  0.000  0.000  0.000  0.000  0.000  0.015
   29  0.000  0.004  0.000  0.011  0.000  0.000  0.000  0.000  0.000  0.015
   30  0.000  0.004  0.000  0.011  0.000  0.000  0.000  0.000  0.000  0.015
   31  0.000  0.004  0.000  0.011  0.000  0.000  0.000  0.000  0.000  0.015
   32  0.000  0.004  0.000  0.011  0.000  0.000  0.000  0.000  0.000  0.015
   33  0.000  0.014  0.000  0.000  0.000  0.000  0.000  0.000  0.000  0.015
   34  0.000  0.014  0.000  0.000  0.000  0.000  0.000  0.000  0.000  0.015
   35  0.000  0.004  0.000  0.011  0.000  0.000  0.000  0.000  0.000  0.015
   36  0.000  0.004  0.000  0.011  0.000  0.000  0.000  0.000  0.000  0.015
tot    0.000  0.222  0.000  0.227  0.034  0.001  0.000  0.001  0.036  0.522
 
band    45 # energy   -5.07993873 # occ.  1.00000000
 
ion      s     py     pz     px    dxy    dyz    dz2    dxz  x2-y2    tot
    1  0.000  0.006  0.000  0.002  0.001  0.000  0.000  0.000  0.004  0.013
    2  0.000  0.000  0.000  0.008  0.005  0.000  0.000  0.000  0.000  0.013
    3  0.000  0.000  0.000  0.008  0.005  0.000  0.000  0.000  0.000  0.013
    4  0.000  0.006  0.000  0.002  0.001  0.000  0.000  0.000  0.004  0.013
    5  0.000  0.000  0.000  0.008  0.005  0.000  0.000  0.000  0.000  0.013
    6  0.000  0.006  0.000  0.002  0.001  0.000  0.000  0.000  0.004  0.013
    7  0.000  0.006  0.000  0.002  0.001  0.000  0.000  0.000  0.004  0.013
    8  0.000  0.006  0.000  0.002  0.001  0.000  0.000  0.000  0.004  0.013
    9  0.000  0.006  0.000  0.002  0.001  0.000  0.000  0.000  0.004  0.013
   10  0.000  0.000  0.000  0.008  0.005  0.000  0.000  0.000  0.000  0.013
   11  0.000  0.006  0.000  0.002  0.001  0.000  0.000  0.000  0.004  0.013
   12  0.000  0.006  0.000  0.002  0.001  0.000  0.000  0.000  0.004  0.013
   13  0.000  0.011  0.000  0.004  0.000  0.000  0.000  0.000  0.000  0.015
   14  0.000  0.000  0.000  0.015  0.000  0.000  0.000  0.000  0.000  0.015
   15  0.000  0.000  0.000  0.015  0.000  0.000  0.000  0.000  0.000  0.015
   16  0.000  0.011  0.000  0.004  0.000  0.000  0.000  0.000  0.000  0.015
   17  0.000  0.011  0.000  0.004  0.000  0.000  0.000  0.000  0.000  0.015
   18  0.000  0.011  0.000  0.004  0.000  0.000  0.000  0.000  0.000  0.015
   19  0.000  0.011  0.000  0.004  0.000  0.000  0.000  0.000  0.000  0.015
   20  0.000  0.011  0.000  0.004  0.000  0.000  0.000  0.000  0.000  0.015
   21  0.000  0.000  0.000  0.015  0.000  0.000  0.000  0.000  0.000  0.015
   22  0.000  0.000  0.000  0.015  0.000  0.000  0.000  0.000  0.000  0.015
   23  0.000  0.011  0.000  0.004  0.000  0.000  0.000  0.000  0.000  0.015
   24  0.000  0.011  0.000  0.004  0.000  0.000  0.000  0.000  0.000  0.015
   25  0.000  0.000  0.000  0.015  0.000  0.000  0.000  0.000  0.000  0.015
   26  0.000  0.000  0.000  0.015  0.000  0.000  0.000  0.000  0.000  0.015
   27  0.000  0.011  0.000  0.004  0.000  0.000  0.000  0.000  0.000  0.015
   28  0.000  0.011  0.000  0.004  0.000  0.000  0.000  0.000  0.000  0.015
   29  0.000  0.011  0.000  0.004  0.000  0.000  0.000  0.000  0.000  0.015
   30  0.000  0.011  0.000  0.004  0.000  0.000  0.000  0.000  0.000  0.015
   31  0.000  0.011  0.000  0.004  0.000  0.000  0.000  0.000  0.000  0.015
   32  0.000  0.011  0.000  0.004  0.000  0.000  0.000  0.000  0.000  0.015
   33  0.000  0.000  0.000  0.015  0.000  0.000  0.000  0.000  0.000  0.015
   34  0.000  0.000  0.000  0.015  0.000  0.000  0.000  0.000  0.000  0.015
   35  0.000  0.011  0.000  0.004  0.000  0.000  0.000  0.000  0.000  0.015
   36  0.000  0.011  0.000  0.004  0.000  0.000  0.000  0.000  0.000  0.015
tot    0.000  0.222  0.000  0.227  0.034  0.001  0.000  0.001  0.036  0.522
 
band    46 # energy   -4.92902316 # occ.  1.00000000
 
ion      s     py     pz     px    dxy    dyz    dz2    dxz  x2-y2    tot
    1  0.000  0.001  0.000  0.002  0.015  0.000  0.007  0.000  0.005  0.030
    2  0.000  0.001  0.000  0.002  0.015  0.000  0.007  0.000  0.005  0.030
    3  0.000  0.001  0.000  0.002  0.015  0.000  0.007  0.000  0.005  0.030
    4  0.000  0.001  0.000  0.002  0.015  0.000  0.007  0.000  0.005  0.030
    5  0.000  0.001  0.000  0.002  0.015  0.000  0.007  0.000  0.005  0.030
    6  0.000  0.001  0.000  0.002  0.015  0.000  0.007  0.000  0.005  0.030
    7  0.000  0.001  0.000  0.002  0.015  0.000  0.007  0.000  0.005  0.030
    8  0.000  0.001  0.000  0.002  0.015  0.000  0.007  0.000  0.005  0.030
    9  0.000  0.001  0.000  0.002  0.015  0.000  0.007  0.000  0.005  0.030
   10  0.000  0.001  0.000  0.002  0.015  0.000  0.007  0.000  0.005  0.030
   11  0.000  0.001  0.000  0.002  0.015  0.000  0.007  0.000  0.005  0.030
   12  0.000  0.001  0.000  0.002  0.015  0.000  0.007  0.000  0.005  0.030
   13  0.001  0.000  0.012  0.001  0.000  0.000  0.000  0.000  0.000  0.014
   14  0.001  0.000  0.012  0.001  0.000  0.000  0.000  0.000  0.000  0.014
   15  0.001  0.000  0.012  0.001  0.000  0.000  0.000  0.000  0.000  0.014
   16  0.001  0.000  0.012  0.001  0.000  0.000  0.000  0.000  0.000  0.014
   17  0.001  0.000  0.012  0.001  0.000  0.000  0.000  0.000  0.000  0.014
   18  0.001  0.000  0.012  0.001  0.000  0.000  0.000  0.000  0.000  0.014
   19  0.001  0.000  0.012  0.001  0.000  0.000  0.000  0.000  0.000  0.014
   20  0.001  0.000  0.012  0.001  0.000  0.000  0.000  0.000  0.000  0.014
   21  0.001  0.000  0.012  0.001  0.000  0.000  0.000  0.000  0.000  0.014
   22  0.001  0.000  0.012  0.001  0.000  0.000  0.000  0.000  0.000  0.014
   23  0.001  0.000  0.012  0.001  0.000  0.000  0.000  0.000  0.000  0.014
   24  0.001  0.000  0.012  0.001  0.000  0.000  0.000  0.000  0.000  0.014
   25  0.001  0.000  0.012  0.001  0.000  0.000  0.000  0.000  0.000  0.014
   26  0.001  0.000  0.012  0.001  0.000  0.000  0.000  0.000  0.000  0.014
   27  0.001  0.000  0.012  0.001  0.000  0.000  0.000  0.000  0.000  0.014
   28  0.001  0.000  0.012  0.001  0.000  0.000  0.000  0.000  0.000  0.014
   29  0.001  0.000  0.012  0.001  0.000  0.000  0.000  0.000  0.000  0.014
   30  0.001  0.000  0.012  0.001  0.000  0.000  0.000  0.000  0.000  0.014
   31  0.001  0.000  0.012  0.001  0.000  0.000  0.000  0.000  0.000  0.014
   32  0.001  0.000  0.012  0.001  0.000  0.000  0.000  0.000  0.000  0.014
   33  0.001  0.000  0.012  0.001  0.000  0.000  0.000  0.000  0.000  0.014
   34  0.001  0.000  0.012  0.001  0.000  0.000  0.000  0.000  0.000  0.014
   35  0.001  0.000  0.012  0.001  0.000  0.000  0.000  0.000  0.000  0.014
   36  0.001  0.000  0.012  0.001  0.000  0.000  0.000  0.000  0.000  0.014
tot    0.031  0.015  0.280  0.046  0.179  0.000  0.096  0.000  0.060  0.707
 
band    47 # energy   -4.88701473 # occ.  1.00000000
 
ion      s     py     pz     px    dxy    dyz    dz2    dxz  x2-y2    tot
    1  0.000  0.000  0.000  0.002  0.000  0.000  0.006  0.000  0.005  0.013
    2  0.004  0.003  0.000  0.004  0.005  0.000  0.001  0.000  0.011  0.028
    3  0.000  0.002  0.000  0.000  0.004  0.000  0.006  0.000  0.001  0.013
    4  0.000  0.001  0.000  0.003  0.006  0.000  0.023  0.000  0.002  0.035
    5  0.004  0.003  0.000  0.004  0.005  0.000  0.001  0.000  0.011  0.028
    6  0.004  0.006  0.000  0.000  0.003  0.000  0.001  0.000  0.013  0.028
    7  0.017  0.001  0.000  0.002  0.000  0.000  0.003  0.000  0.000  0.023
    8  0.004  0.006  0.000  0.000  0.003  0.000  0.001  0.000  0.013  0.028
    9  0.017  0.001  0.000  0.002  0.000  0.000  0.003  0.000  0.000  0.023
   10  0.000  0.002  0.000  0.000  0.004  0.000  0.006  0.000  0.001  0.013
   11  0.000  0.001  0.000  0.003  0.006  0.000  0.023  0.000  0.002  0.035
   12  0.000  0.000  0.000  0.002  0.000  0.000  0.006  0.000  0.005  0.013
   13  0.006  0.000  0.047  0.001  0.000  0.000  0.001  0.000  0.000  0.056
   14  0.002  0.001  0.012  0.002  0.000  0.000  0.000  0.000  0.000  0.016
   15  0.002  0.001  0.012  0.002  0.000  0.000  0.000  0.000  0.000  0.016
   16  0.000  0.002  0.000  0.001  0.000  0.000  0.000  0.000  0.000  0.003
   17  0.000  0.002  0.000  0.001  0.000  0.000  0.000  0.000  0.000  0.003
   18  0.002  0.003  0.012  0.000  0.000  0.000  0.000  0.000  0.000  0.017
   19  0.002  0.003  0.012  0.000  0.000  0.000  0.000  0.000  0.000  0.017
   20  0.006  0.000  0.047  0.001  0.000  0.000  0.001  0.000  0.000  0.056
   21  0.002  0.001  0.012  0.002  0.000  0.000  0.000  0.000  0.000  0.016
   22  0.002  0.001  0.012  0.002  0.000  0.000  0.000  0.000  0.000  0.016
   23  0.001  0.000  0.001  0.000  0.000  0.000  0.000  0.000  0.000  0.002
   24  0.001  0.000  0.001  0.000  0.000  0.000  0.000  0.000  0.000  0.002
   25  0.000  0.002  0.000  0.000  0.000  0.000  0.000  0.000  0.000  0.003
   26  0.000  0.002  0.000  0.000  0.000  0.000  0.000  0.000  0.000  0.003
   27  0.006  0.000  0.047  0.001  0.000  0.000  0.001  0.000  0.000  0.056
   28  0.006  0.000  0.047  0.001  0.000  0.000  0.001  0.000  0.000  0.056
   29  0.000  0.002  0.000  0.001  0.000  0.000  0.000  0.000  0.000  0.003
   30  0.002  0.003  0.012  0.000  0.000  0.000  0.000  0.000  0.000  0.017
   31  0.002  0.003  0.012  0.000  0.000  0.000  0.000  0.000  0.000  0.017
   32  0.000  0.002  0.000  0.001  0.000  0.000  0.000  0.000  0.000  0.003
   33  0.000  0.002  0.000  0.000  0.000  0.000  0.000  0.000  0.000  0.003
   34  0.000  0.002  0.000  0.000  0.000  0.000  0.000  0.000  0.000  0.003
   35  0.001  0.000  0.001  0.000  0.000  0.000  0.000  0.000  0.000  0.002
   36  0.001  0.000  0.001  0.000  0.000  0.000  0.000  0.000  0.000  0.002
tot    0.095  0.059  0.286  0.042  0.039  0.001  0.081  0.000  0.065  0.668
 
band    48 # energy   -4.88689155 # occ.  1.00000000
 
ion      s     py     pz     px    dxy    dyz    dz2    dxz  x2-y2    tot
    1  0.000  0.002  0.000  0.002  0.007  0.000  0.017  0.000  0.000  0.028
    2  0.013  0.004  0.000  0.000  0.000  0.000  0.002  0.000  0.005  0.024
    3  0.000  0.000  0.000  0.003  0.002  0.000  0.017  0.000  0.004  0.028
    4  0.000  0.001  0.000  0.000  0.001  0.000  0.000  0.000  0.003  0.006
    5  0.013  0.004  0.000  0.000  0.000  0.000  0.002  0.000  0.005  0.024
    6  0.013  0.000  0.000  0.004  0.003  0.000  0.002  0.000  0.003  0.024
    7  0.000  0.006  0.000  0.002  0.005  0.000  0.000  0.000  0.016  0.029
    8  0.013  0.000  0.000  0.004  0.003  0.000  0.002  0.000  0.003  0.024
    9  0.000  0.006  0.000  0.002  0.005  0.000  0.000  0.000  0.016  0.029
   10  0.000  0.000  0.000  0.003  0.002  0.000  0.017  0.000  0.004  0.028
   11  0.000  0.001  0.000  0.000  0.001  0.000  0.000  0.000  0.003  0.006
   12  0.000  0.002  0.000  0.002  0.007  0.000  0.017  0.000  0.000  0.028
   13  0.000  0.002  0.000  0.001  0.000  0.000  0.000  0.000  0.000  0.003
   14  0.005  0.002  0.035  0.000  0.000  0.000  0.001  0.000  0.000  0.043
   15  0.005  0.002  0.035  0.000  0.000  0.000  0.001  0.000  0.000  0.043
   16  0.001  0.001  0.000  0.000  0.000  0.000  0.000  0.000  0.000  0.002
   17  0.001  0.001  0.000  0.000  0.000  0.000  0.000  0.000  0.000  0.002
   18  0.005  0.000  0.035  0.002  0.000  0.000  0.001  0.000  0.000  0.043
   19  0.005  0.000  0.035  0.002  0.000  0.000  0.001  0.000  0.000  0.043
   20  0.000  0.002  0.000  0.001  0.000  0.000  0.000  0.000  0.000  0.003
   21  0.005  0.002  0.035  0.000  0.000  0.000  0.001  0.000  0.000  0.043
   22  0.005  0.002  0.035  0.000  0.000  0.000  0.001  0.000  0.000  0.043
   23  0.000  0.003  0.000  0.001  0.000  0.000  0.000  0.000  0.000  0.004
   24  0.000  0.003  0.000  0.001  0.000  0.000  0.000  0.000  0.000  0.004
   25  0.001  0.000  0.000  0.001  0.000  0.000  0.000  0.000  0.000  0.002
   26  0.001  0.000  0.000  0.001  0.000  0.000  0.000  0.000  0.000  0.002
   27  0.000  0.002  0.000  0.001  0.000  0.000  0.000  0.000  0.000  0.003
   28  0.000  0.002  0.000  0.001  0.000  0.000  0.000  0.000  0.000  0.003
   29  0.001  0.001  0.000  0.000  0.000  0.000  0.000  0.000  0.000  0.002
   30  0.005  0.000  0.035  0.002  0.000  0.000  0.001  0.000  0.000  0.043
   31  0.005  0.000  0.035  0.002  0.000  0.000  0.001  0.000  0.000  0.043
   32  0.001  0.001  0.000  0.000  0.000  0.000  0.000  0.000  0.000  0.002
   33  0.001  0.000  0.000  0.001  0.000  0.000  0.000  0.000  0.000  0.002
   34  0.001  0.000  0.000  0.001  0.000  0.000  0.000  0.000  0.000  0.002
   35  0.000  0.003  0.000  0.001  0.000  0.000  0.000  0.000  0.000  0.004
   36  0.000  0.003  0.000  0.001  0.000  0.000  0.000  0.000  0.000  0.004
tot    0.095  0.059  0.286  0.042  0.039  0.001  0.081  0.000  0.065  0.668
 
band    49 # energy   -4.88662691 # occ.  1.00000000
 
ion      s     py     pz     px    dxy    dyz    dz2    dxz  x2-y2    tot
    1  0.004  0.006  0.000  0.000  0.003  0.000  0.001  0.000  0.013  0.028
    2  0.000  0.002  0.000  0.000  0.004  0.000  0.006  0.000  0.001  0.013
    3  0.004  0.003  0.000  0.004  0.005  0.000  0.001  0.000  0.011  0.028
    4  0.017  0.001  0.000  0.002  0.000  0.000  0.003  0.000  0.000  0.023
    5  0.000  0.002  0.000  0.000  0.004  0.000  0.006  0.000  0.001  0.013
    6  0.000  0.000  0.000  0.002  0.000  0.000  0.006  0.000  0.005  0.013
    7  0.000  0.001  0.000  0.003  0.006  0.000  0.023  0.000  0.002  0.035
    8  0.000  0.000  0.000  0.002  0.000  0.000  0.006  0.000  0.005  0.013
    9  0.000  0.001  0.000  0.003  0.006  0.000  0.023  0.000  0.002  0.035
   10  0.004  0.003  0.000  0.004  0.005  0.000  0.001  0.000  0.011  0.028
   11  0.017  0.001  0.000  0.002  0.000  0.000  0.003  0.000  0.000  0.023
   12  0.004  0.006  0.000  0.000  0.003  0.000  0.001  0.000  0.013  0.028
   13  0.001  0.000  0.001  0.000  0.000  0.000  0.000  0.000  0.000  0.002
   14  0.000  0.002  0.000  0.000  0.000  0.000  0.000  0.000  0.000  0.003
   15  0.000  0.002  0.000  0.000  0.000  0.000  0.000  0.000  0.000  0.003
   16  0.002  0.003  0.012  0.000  0.000  0.000  0.000  0.000  0.000  0.017
   17  0.002  0.003  0.012  0.000  0.000  0.000  0.000  0.000  0.000  0.017
   18  0.000  0.002  0.000  0.001  0.000  0.000  0.000  0.000  0.000  0.003
   19  0.000  0.002  0.000  0.001  0.000  0.000  0.000  0.000  0.000  0.003
   20  0.001  0.000  0.001  0.000  0.000  0.000  0.000  0.000  0.000  0.002
   21  0.000  0.002  0.000  0.000  0.000  0.000  0.000  0.000  0.000  0.003
   22  0.000  0.002  0.000  0.000  0.000  0.000  0.000  0.000  0.000  0.003
   23  0.006  0.000  0.047  0.001  0.000  0.000  0.001  0.000  0.000  0.056
   24  0.006  0.000  0.047  0.001  0.000  0.000  0.001  0.000  0.000  0.056
   25  0.002  0.001  0.012  0.002  0.000  0.000  0.000  0.000  0.000  0.017
   26  0.002  0.001  0.012  0.002  0.000  0.000  0.000  0.000  0.000  0.017
   27  0.001  0.000  0.001  0.000  0.000  0.000  0.000  0.000  0.000  0.002
   28  0.001  0.000  0.001  0.000  0.000  0.000  0.000  0.000  0.000  0.002
   29  0.002  0.003  0.012  0.000  0.000  0.000  0.000  0.000  0.000  0.017
   30  0.000  0.002  0.000  0.001  0.000  0.000  0.000  0.000  0.000  0.003
   31  0.000  0.002  0.000  0.001  0.000  0.000  0.000  0.000  0.000  0.003
   32  0.002  0.003  0.012  0.000  0.000  0.000  0.000  0.000  0.000  0.017
   33  0.002  0.001  0.012  0.002  0.000  0.000  0.000  0.000  0.000  0.017
   34  0.002  0.001  0.012  0.002  0.000  0.000  0.000  0.000  0.000  0.017
   35  0.006  0.000  0.047  0.001  0.000  0.000  0.001  0.000  0.000  0.056
   36  0.006  0.000  0.047  0.001  0.000  0.000  0.001  0.000  0.000  0.056
tot    0.095  0.059  0.286  0.042  0.039  0.001  0.081  0.000  0.065  0.668
 
band    50 # energy   -4.88650372 # occ.  1.00000000
 
ion      s     py     pz     px    dxy    dyz    dz2    dxz  x2-y2    tot
    1  0.013  0.000  0.000  0.004  0.003  0.000  0.002  0.000  0.003  0.024
    2  0.000  0.000  0.000  0.003  0.002  0.000  0.017  0.000  0.004  0.028
    3  0.013  0.004  0.000  0.000  0.000  0.000  0.002  0.000  0.005  0.024
    4  0.000  0.006  0.000  0.002  0.005  0.000  0.000  0.000  0.016  0.029
    5  0.000  0.000  0.000  0.003  0.002  0.000  0.017  0.000  0.004  0.028
    6  0.000  0.002  0.000  0.002  0.007  0.000  0.017  0.000  0.000  0.028
    7  0.000  0.001  0.000  0.000  0.001  0.000  0.000  0.000  0.003  0.006
    8  0.000  0.002  0.000  0.002  0.007  0.000  0.017  0.000  0.000  0.028
    9  0.000  0.001  0.000  0.000  0.001  0.000  0.000  0.000  0.003  0.006
   10  0.013  0.004  0.000  0.000  0.000  0.000  0.002  0.000  0.005  0.024
   11  0.000  0.006  0.000  0.002  0.005  0.000  0.000  0.000  0.016  0.029
   12  0.013  0.000  0.000  0.004  0.003  0.000  0.002  0.000  0.003  0.024
   13  0.000  0.003  0.000  0.001  0.000  0.000  0.000  0.000  0.000  0.004
   14  0.001  0.000  0.000  0.001  0.000  0.000  0.000  0.000  0.000  0.002
   15  0.001  0.000  0.000  0.001  0.000  0.000  0.000  0.000  0.000  0.002
   16  0.005  0.000  0.035  0.002  0.000  0.000  0.001  0.000  0.000  0.043
   17  0.005  0.000  0.035  0.002  0.000  0.000  0.001  0.000  0.000  0.043
   18  0.001  0.001  0.000  0.000  0.000  0.000  0.000  0.000  0.000  0.002
   19  0.001  0.001  0.000  0.000  0.000  0.000  0.000  0.000  0.000  0.002
   20  0.000  0.003  0.000  0.001  0.000  0.000  0.000  0.000  0.000  0.004
   21  0.001  0.000  0.000  0.001  0.000  0.000  0.000  0.000  0.000  0.002
   22  0.001  0.000  0.000  0.001  0.000  0.000  0.000  0.000  0.000  0.002
   23  0.000  0.002  0.000  0.001  0.000  0.000  0.000  0.000  0.000  0.003
   24  0.000  0.002  0.000  0.001  0.000  0.000  0.000  0.000  0.000  0.003
   25  0.005  0.002  0.035  0.000  0.000  0.000  0.001  0.000  0.000  0.043
   26  0.005  0.002  0.035  0.000  0.000  0.000  0.001  0.000  0.000  0.043
   27  0.000  0.003  0.000  0.001  0.000  0.000  0.000  0.000  0.000  0.004
   28  0.000  0.003  0.000  0.001  0.000  0.000  0.000  0.000  0.000  0.004
   29  0.005  0.000  0.035  0.002  0.000  0.000  0.001  0.000  0.000  0.043
   30  0.001  0.001  0.000  0.000  0.000  0.000  0.000  0.000  0.000  0.002
   31  0.001  0.001  0.000  0.000  0.000  0.000  0.000  0.000  0.000  0.002
   32  0.005  0.000  0.035  0.002  0.000  0.000  0.001  0.000  0.000  0.043
   33  0.005  0.002  0.035  0.000  0.000  0.000  0.001  0.000  0.000  0.043
   34  0.005  0.002  0.035  0.000  0.000  0.000  0.001  0.000  0.000  0.043
   35  0.000  0.002  0.000  0.001  0.000  0.000  0.000  0.000  0.000  0.003
   36  0.000  0.002  0.000  0.001  0.000  0.000  0.000  0.000  0.000  0.003
tot    0.095  0.059  0.286  0.042  0.039  0.001  0.081  0.000  0.065  0.668
 
band    51 # energy   -4.84788806 # occ.  1.00000000
 
ion      s     py     pz     px    dxy    dyz    dz2    dxz  x2-y2    tot
    1  0.019  0.000  0.000  0.001  0.005  0.000  0.001  0.000  0.000  0.027
    2  0.019  0.001  0.000  0.000  0.000  0.000  0.001  0.000  0.005  0.027
    3  0.019  0.001  0.000  0.000  0.000  0.000  0.001  0.000  0.005  0.027
    4  0.000  0.002  0.000  0.001  0.003  0.000  0.000  0.000  0.008  0.013
    5  0.019  0.001  0.000  0.000  0.000  0.000  0.001  0.000  0.005  0.027
    6  0.019  0.000  0.000  0.001  0.005  0.000  0.001  0.000  0.000  0.027
    7  0.000  0.002  0.000  0.001  0.003  0.000  0.000  0.000  0.008  0.013
    8  0.019  0.000  0.000  0.001  0.005  0.000  0.001  0.000  0.000  0.027
    9  0.000  0.002  0.000  0.001  0.003  0.000  0.000  0.000  0.008  0.013
   10  0.019  0.001  0.000  0.000  0.000  0.000  0.001  0.000  0.005  0.027
   11  0.000  0.002  0.000  0.001  0.003  0.000  0.000  0.000  0.008  0.013
   12  0.019  0.000  0.000  0.001  0.005  0.000  0.001  0.000  0.000  0.027
   13  0.000  0.012  0.000  0.004  0.000  0.000  0.000  0.000  0.000  0.016
   14  0.004  0.002  0.008  0.001  0.000  0.000  0.000  0.000  0.000  0.016
   15  0.004  0.002  0.008  0.001  0.000  0.000  0.000  0.000  0.000  0.016
   16  0.004  0.003  0.008  0.001  0.000  0.000  0.000  0.000  0.000  0.016
   17  0.004  0.003  0.008  0.001  0.000  0.000  0.000  0.000  0.000  0.016
   18  0.004  0.003  0.008  0.001  0.000  0.000  0.000  0.000  0.000  0.016
   19  0.004  0.003  0.008  0.001  0.000  0.000  0.000  0.000  0.000  0.016
   20  0.000  0.012  0.000  0.004  0.000  0.000  0.000  0.000  0.000  0.016
   21  0.004  0.002  0.008  0.001  0.000  0.000  0.000  0.000  0.000  0.016
   22  0.004  0.002  0.008  0.001  0.000  0.000  0.000  0.000  0.000  0.016
   23  0.000  0.012  0.000  0.004  0.000  0.000  0.000  0.000  0.000  0.016
   24  0.000  0.012  0.000  0.004  0.000  0.000  0.000  0.000  0.000  0.016
   25  0.004  0.002  0.008  0.001  0.000  0.000  0.000  0.000  0.000  0.016
   26  0.004  0.002  0.008  0.001  0.000  0.000  0.000  0.000  0.000  0.016
   27  0.000  0.012  0.000  0.004  0.000  0.000  0.000  0.000  0.000  0.016
   28  0.000  0.012  0.000  0.004  0.000  0.000  0.000  0.000  0.000  0.016
   29  0.004  0.003  0.008  0.001  0.000  0.000  0.000  0.000  0.000  0.016
   30  0.004  0.003  0.008  0.001  0.000  0.000  0.000  0.000  0.000  0.016
   31  0.004  0.003  0.008  0.001  0.000  0.000  0.000  0.000  0.000  0.016
   32  0.004  0.003  0.008  0.001  0.000  0.000  0.000  0.000  0.000  0.016
   33  0.004  0.002  0.008  0.001  0.000  0.000  0.000  0.000  0.000  0.016
   34  0.004  0.002  0.008  0.001  0.000  0.000  0.000  0.000  0.000  0.016
   35  0.000  0.012  0.000  0.004  0.000  0.000  0.000  0.000  0.000  0.016
   36  0.000  0.012  0.000  0.004  0.000  0.000  0.000  0.000  0.000  0.016
tot    0.222  0.150  0.127  0.056  0.031  0.005  0.007  0.002  0.053  0.653
 
band    52 # energy   -4.84787485 # occ.  1.00000000
 
ion      s     py     pz     px    dxy    dyz    dz2    dxz  x2-y2    tot
    1  0.006  0.002  0.000  0.000  0.000  0.000  0.000  0.000  0.008  0.017
    2  0.007  0.001  0.000  0.001  0.005  0.000  0.000  0.000  0.004  0.018
    3  0.007  0.001  0.000  0.001  0.005  0.000  0.000  0.000  0.004  0.018
    4  0.026  0.000  0.000  0.001  0.002  0.000  0.001  0.000  0.001  0.032
    5  0.007  0.001  0.000  0.001  0.005  0.000  0.000  0.000  0.004  0.018
    6  0.006  0.002  0.000  0.000  0.000  0.000  0.000  0.000  0.009  0.018
    7  0.026  0.000  0.000  0.001  0.002  0.000  0.001  0.000  0.001  0.032
    8  0.006  0.002  0.000  0.000  0.000  0.000  0.000  0.000  0.009  0.018
    9  0.026  0.000  0.000  0.001  0.002  0.000  0.001  0.000  0.001  0.032
   10  0.007  0.001  0.000  0.001  0.005  0.000  0.000  0.000  0.004  0.018
   11  0.026  0.000  0.000  0.001  0.002  0.000  0.001  0.000  0.001  0.032
   12  0.006  0.002  0.000  0.000  0.000  0.000  0.000  0.000  0.008  0.017
   13  0.006  0.000  0.011  0.000  0.000  0.000  0.000  0.000  0.000  0.016
   14  0.001  0.009  0.003  0.003  0.000  0.000  0.000  0.000  0.000  0.016
   15  0.001  0.009  0.003  0.003  0.000  0.000  0.000  0.000  0.000  0.016
   16  0.001  0.008  0.003  0.003  0.000  0.000  0.000  0.000  0.000  0.016
   17  0.001  0.008  0.003  0.003  0.000  0.000  0.000  0.000  0.000  0.016
   18  0.001  0.008  0.003  0.003  0.000  0.000  0.000  0.000  0.000  0.016
   19  0.001  0.008  0.003  0.003  0.000  0.000  0.000  0.000  0.000  0.016
   20  0.006  0.000  0.011  0.000  0.000  0.000  0.000  0.000  0.000  0.016
   21  0.001  0.009  0.003  0.003  0.000  0.000  0.000  0.000  0.000  0.016
   22  0.001  0.009  0.003  0.003  0.000  0.000  0.000  0.000  0.000  0.016
   23  0.006  0.000  0.011  0.000  0.000  0.000  0.000  0.000  0.000  0.016
   24  0.006  0.000  0.011  0.000  0.000  0.000  0.000  0.000  0.000  0.016
   25  0.001  0.009  0.003  0.003  0.000  0.000  0.000  0.000  0.000  0.016
   26  0.001  0.009  0.003  0.003  0.000  0.000  0.000  0.000  0.000  0.016
   27  0.006  0.000  0.011  0.000  0.000  0.000  0.000  0.000  0.000  0.016
   28  0.006  0.000  0.011  0.000  0.000  0.000  0.000  0.000  0.000  0.016
   29  0.001  0.008  0.003  0.003  0.000  0.000  0.000  0.000  0.000  0.016
   30  0.001  0.008  0.003  0.003  0.000  0.000  0.000  0.000  0.000  0.016
   31  0.001  0.008  0.003  0.003  0.000  0.000  0.000  0.000  0.000  0.016
   32  0.001  0.008  0.003  0.003  0.000  0.000  0.000  0.000  0.000  0.016
   33  0.001  0.009  0.003  0.003  0.000  0.000  0.000  0.000  0.000  0.016
   34  0.001  0.009  0.003  0.003  0.000  0.000  0.000  0.000  0.000  0.016
   35  0.006  0.000  0.011  0.000  0.000  0.000  0.000  0.000  0.000  0.016
   36  0.006  0.000  0.011  0.000  0.000  0.000  0.000  0.000  0.000  0.016
tot    0.222  0.150  0.127  0.056  0.031  0.005  0.007  0.002  0.053  0.653
 
band    53 # energy   -4.76688891 # occ.  1.00000000
 
ion      s     py     pz     px    dxy    dyz    dz2    dxz  x2-y2    tot
    1  0.017  0.001  0.000  0.004  0.002  0.000  0.000  0.000  0.001  0.024
    2  0.001  0.000  0.000  0.000  0.017  0.000  0.004  0.000  0.006  0.027
    3  0.017  0.001  0.000  0.004  0.002  0.000  0.000  0.000  0.001  0.024
    4  0.017  0.001  0.000  0.004  0.002  0.000  0.000  0.000  0.001  0.024
    5  0.001  0.000  0.000  0.000  0.017  0.000  0.004  0.000  0.006  0.027
    6  0.001  0.000  0.000  0.000  0.017  0.000  0.004  0.000  0.006  0.027
    7  0.001  0.000  0.000  0.000  0.017  0.000  0.004  0.000  0.006  0.027
    8  0.001  0.000  0.000  0.000  0.017  0.000  0.004  0.000  0.006  0.027
    9  0.001  0.000  0.000  0.000  0.017  0.000  0.004  0.000  0.006  0.027
   10  0.017  0.001  0.000  0.004  0.002  0.000  0.000  0.000  0.001  0.024
   11  0.017  0.001  0.000  0.004  0.002  0.000  0.000  0.000  0.001  0.024
   12  0.017  0.001  0.000  0.004  0.002  0.000  0.000  0.000  0.001  0.024
   13  0.002  0.003  0.004  0.010  0.000  0.000  0.000  0.000  0.000  0.019
   14  0.002  0.003  0.004  0.010  0.000  0.000  0.000  0.000  0.000  0.019
   15  0.002  0.003  0.004  0.010  0.000  0.000  0.000  0.000  0.000  0.019
   16  0.002  0.002  0.001  0.005  0.000  0.000  0.000  0.000  0.000  0.011
   17  0.002  0.002  0.001  0.005  0.000  0.000  0.000  0.000  0.000  0.011
   18  0.002  0.003  0.004  0.010  0.000  0.000  0.000  0.000  0.000  0.019
   19  0.002  0.003  0.004  0.010  0.000  0.000  0.000  0.000  0.000  0.019
   20  0.002  0.003  0.004  0.010  0.000  0.000  0.000  0.000  0.000  0.019
   21  0.002  0.003  0.004  0.010  0.000  0.000  0.000  0.000  0.000  0.019
   22  0.002  0.003  0.004  0.010  0.000  0.000  0.000  0.000  0.000  0.019
   23  0.002  0.002  0.001  0.005  0.000  0.000  0.000  0.000  0.000  0.011
   24  0.002  0.002  0.001  0.005  0.000  0.000  0.000  0.000  0.000  0.011
   25  0.002  0.002  0.001  0.005  0.000  0.000  0.000  0.000  0.000  0.011
   26  0.002  0.002  0.001  0.005  0.000  0.000  0.000  0.000  0.000  0.011
   27  0.002  0.003  0.004  0.010  0.000  0.000  0.000  0.000  0.000  0.019
   28  0.002  0.003  0.004  0.010  0.000  0.000  0.000  0.000  0.000  0.019
   29  0.002  0.002  0.001  0.005  0.000  0.000  0.000  0.000  0.000  0.011
   30  0.002  0.003  0.004  0.010  0.000  0.000  0.000  0.000  0.000  0.019
   31  0.002  0.003  0.004  0.010  0.000  0.000  0.000  0.000  0.000  0.019
   32  0.002  0.002  0.001  0.005  0.000  0.000  0.000  0.000  0.000  0.011
   33  0.002  0.002  0.001  0.005  0.000  0.000  0.000  0.000  0.000  0.011
   34  0.002  0.002  0.001  0.005  0.000  0.000  0.000  0.000  0.000  0.011
   35  0.002  0.002  0.001  0.005  0.000  0.000  0.000  0.000  0.000  0.011
   36  0.002  0.002  0.001  0.005  0.000  0.000  0.000  0.000  0.000  0.011
tot    0.159  0.069  0.053  0.207  0.111  0.002  0.025  0.005  0.037  0.667
 
band    54 # energy   -4.76649910 # occ.  1.00000000
 
ion      s     py     pz     px    dxy    dyz    dz2    dxz  x2-y2    tot
    1  0.001  0.000  0.000  0.000  0.017  0.000  0.004  0.000  0.006  0.027
    2  0.017  0.001  0.000  0.004  0.002  0.000  0.000  0.000  0.001  0.024
    3  0.001  0.000  0.000  0.000  0.017  0.000  0.004  0.000  0.006  0.027
    4  0.001  0.000  0.000  0.000  0.017  0.000  0.004  0.000  0.006  0.027
    5  0.017  0.001  0.000  0.004  0.002  0.000  0.000  0.000  0.001  0.024
    6  0.017  0.001  0.000  0.004  0.002  0.000  0.000  0.000  0.001  0.024
    7  0.017  0.001  0.000  0.004  0.002  0.000  0.000  0.000  0.001  0.024
    8  0.017  0.001  0.000  0.004  0.002  0.000  0.000  0.000  0.001  0.024
    9  0.017  0.001  0.000  0.004  0.002  0.000  0.000  0.000  0.001  0.024
   10  0.001  0.000  0.000  0.000  0.017  0.000  0.004  0.000  0.006  0.027
   11  0.001  0.000  0.000  0.000  0.017  0.000  0.004  0.000  0.006  0.027
   12  0.001  0.000  0.000  0.000  0.017  0.000  0.004  0.000  0.006  0.027
   13  0.002  0.002  0.001  0.005  0.000  0.000  0.000  0.000  0.000  0.011
   14  0.002  0.002  0.001  0.005  0.000  0.000  0.000  0.000  0.000  0.011
   15  0.002  0.002  0.001  0.005  0.000  0.000  0.000  0.000  0.000  0.011
   16  0.002  0.003  0.004  0.010  0.000  0.000  0.000  0.000  0.000  0.019
   17  0.002  0.003  0.004  0.010  0.000  0.000  0.000  0.000  0.000  0.019
   18  0.002  0.002  0.001  0.005  0.000  0.000  0.000  0.000  0.000  0.011
   19  0.002  0.002  0.001  0.005  0.000  0.000  0.000  0.000  0.000  0.011
   20  0.002  0.002  0.001  0.005  0.000  0.000  0.000  0.000  0.000  0.011
   21  0.002  0.002  0.001  0.005  0.000  0.000  0.000  0.000  0.000  0.011
   22  0.002  0.002  0.001  0.005  0.000  0.000  0.000  0.000  0.000  0.011
   23  0.002  0.003  0.004  0.010  0.000  0.000  0.000  0.000  0.000  0.019
   24  0.002  0.003  0.004  0.010  0.000  0.000  0.000  0.000  0.000  0.019
   25  0.002  0.003  0.004  0.010  0.000  0.000  0.000  0.000  0.000  0.019
   26  0.002  0.003  0.004  0.010  0.000  0.000  0.000  0.000  0.000  0.019
   27  0.002  0.002  0.001  0.005  0.000  0.000  0.000  0.000  0.000  0.011
   28  0.002  0.002  0.001  0.005  0.000  0.000  0.000  0.000  0.000  0.011
   29  0.002  0.003  0.004  0.010  0.000  0.000  0.000  0.000  0.000  0.019
   30  0.002  0.002  0.001  0.005  0.000  0.000  0.000  0.000  0.000  0.011
   31  0.002  0.002  0.001  0.005  0.000  0.000  0.000  0.000  0.000  0.011
   32  0.002  0.003  0.004  0.010  0.000  0.000  0.000  0.000  0.000  0.019
   33  0.002  0.003  0.004  0.010  0.000  0.000  0.000  0.000  0.000  0.019
   34  0.002  0.003  0.004  0.010  0.000  0.000  0.000  0.000  0.000  0.019
   35  0.002  0.003  0.004  0.010  0.000  0.000  0.000  0.000  0.000  0.019
   36  0.002  0.003  0.004  0.010  0.000  0.000  0.000  0.000  0.000  0.019
tot    0.159  0.069  0.053  0.207  0.111  0.002  0.025  0.005  0.037  0.667
 
band    55 # energy   -4.52158344 # occ.  1.00000000
 
ion      s     py     pz     px    dxy    dyz    dz2    dxz  x2-y2    tot
    1  0.000  0.005  0.000  0.000  0.000  0.000  0.000  0.000  0.019  0.024
    2  0.000  0.001  0.000  0.004  0.014  0.000  0.000  0.000  0.005  0.024
    3  0.000  0.001  0.000  0.004  0.014  0.000  0.000  0.000  0.005  0.024
    4  0.000  0.001  0.000  0.004  0.014  0.000  0.000  0.000  0.005  0.024
    5  0.000  0.001  0.000  0.004  0.014  0.000  0.000  0.000  0.005  0.024
    6  0.000  0.005  0.000  0.000  0.000  0.000  0.000  0.000  0.019  0.024
    7  0.000  0.001  0.000  0.004  0.014  0.000  0.000  0.000  0.005  0.024
    8  0.000  0.005  0.000  0.000  0.000  0.000  0.000  0.000  0.019  0.024
    9  0.000  0.001  0.000  0.004  0.014  0.000  0.000  0.000  0.005  0.024
   10  0.000  0.001  0.000  0.004  0.014  0.000  0.000  0.000  0.005  0.024
   11  0.000  0.001  0.000  0.004  0.014  0.000  0.000  0.000  0.005  0.024
   12  0.000  0.005  0.000  0.000  0.000  0.000  0.000  0.000  0.019  0.024
   13  0.004  0.000  0.030  0.000  0.000  0.000  0.000  0.000  0.000  0.035
   14  0.001  0.000  0.007  0.000  0.000  0.000  0.000  0.000  0.000  0.009
   15  0.001  0.000  0.007  0.000  0.000  0.000  0.000  0.000  0.000  0.009
   16  0.001  0.000  0.008  0.000  0.000  0.000  0.000  0.000  0.000  0.009
   17  0.001  0.000  0.008  0.000  0.000  0.000  0.000  0.000  0.000  0.009
   18  0.001  0.000  0.008  0.000  0.000  0.000  0.000  0.000  0.000  0.009
   19  0.001  0.000  0.008  0.000  0.000  0.000  0.000  0.000  0.000  0.009
   20  0.004  0.000  0.030  0.000  0.000  0.000  0.000  0.000  0.000  0.035
   21  0.001  0.000  0.007  0.000  0.000  0.000  0.000  0.000  0.000  0.009
   22  0.001  0.000  0.007  0.000  0.000  0.000  0.000  0.000  0.000  0.009
   23  0.004  0.000  0.030  0.000  0.000  0.000  0.000  0.000  0.000  0.035
   24  0.004  0.000  0.030  0.000  0.000  0.000  0.000  0.000  0.000  0.035
   25  0.001  0.000  0.007  0.000  0.000  0.000  0.000  0.000  0.000  0.009
   26  0.001  0.000  0.007  0.000  0.000  0.000  0.000  0.000  0.000  0.009
   27  0.004  0.000  0.030  0.000  0.000  0.000  0.000  0.000  0.000  0.035
   28  0.004  0.000  0.030  0.000  0.000  0.000  0.000  0.000  0.000  0.035
   29  0.001  0.000  0.008  0.000  0.000  0.000  0.000  0.000  0.000  0.009
   30  0.001  0.000  0.008  0.000  0.000  0.000  0.000  0.000  0.000  0.009
   31  0.001  0.000  0.008  0.000  0.000  0.000  0.000  0.000  0.000  0.009
   32  0.001  0.000  0.008  0.000  0.000  0.000  0.000  0.000  0.000  0.009
   33  0.001  0.000  0.007  0.000  0.000  0.000  0.000  0.000  0.000  0.009
   34  0.001  0.000  0.007  0.000  0.000  0.000  0.000  0.000  0.000  0.009
   35  0.004  0.000  0.030  0.000  0.000  0.000  0.000  0.000  0.000  0.035
   36  0.004  0.000  0.030  0.000  0.000  0.000  0.000  0.000  0.000  0.035
tot    0.049  0.030  0.366  0.029  0.115  0.000  0.006  0.000  0.114  0.708
 
band    56 # energy   -4.52157718 # occ.  1.00000000
 
ion      s     py     pz     px    dxy    dyz    dz2    dxz  x2-y2    tot
    1  0.000  0.000  0.000  0.005  0.019  0.000  0.000  0.000  0.000  0.024
    2  0.000  0.004  0.000  0.001  0.005  0.000  0.000  0.000  0.014  0.024
    3  0.000  0.004  0.000  0.001  0.005  0.000  0.000  0.000  0.014  0.024
    4  0.000  0.004  0.000  0.001  0.005  0.000  0.000  0.000  0.014  0.024
    5  0.000  0.004  0.000  0.001  0.005  0.000  0.000  0.000  0.014  0.024
    6  0.000  0.000  0.000  0.005  0.019  0.000  0.000  0.000  0.000  0.024
    7  0.000  0.004  0.000  0.001  0.005  0.000  0.000  0.000  0.014  0.024
    8  0.000  0.000  0.000  0.005  0.019  0.000  0.000  0.000  0.000  0.024
    9  0.000  0.004  0.000  0.001  0.005  0.000  0.000  0.000  0.014  0.024
   10  0.000  0.004  0.000  0.001  0.005  0.000  0.000  0.000  0.014  0.024
   11  0.000  0.004  0.000  0.001  0.005  0.000  0.000  0.000  0.014  0.024
   12  0.000  0.000  0.000  0.005  0.019  0.000  0.000  0.000  0.000  0.024
   13  0.000  0.000  0.000  0.000  0.000  0.000  0.000  0.000  0.000  0.000
   14  0.003  0.000  0.023  0.000  0.000  0.000  0.000  0.000  0.000  0.026
   15  0.003  0.000  0.023  0.000  0.000  0.000  0.000  0.000  0.000  0.026
   16  0.003  0.000  0.023  0.000  0.000  0.000  0.000  0.000  0.000  0.026
   17  0.003  0.000  0.023  0.000  0.000  0.000  0.000  0.000  0.000  0.026
   18  0.003  0.000  0.023  0.000  0.000  0.000  0.000  0.000  0.000  0.026
   19  0.003  0.000  0.023  0.000  0.000  0.000  0.000  0.000  0.000  0.026
   20  0.000  0.000  0.000  0.000  0.000  0.000  0.000  0.000  0.000  0.000
   21  0.003  0.000  0.023  0.000  0.000  0.000  0.000  0.000  0.000  0.026
   22  0.003  0.000  0.023  0.000  0.000  0.000  0.000  0.000  0.000  0.026
   23  0.000  0.000  0.000  0.000  0.000  0.000  0.000  0.000  0.000  0.000
   24  0.000  0.000  0.000  0.000  0.000  0.000  0.000  0.000  0.000  0.000
   25  0.003  0.000  0.023  0.000  0.000  0.000  0.000  0.000  0.000  0.026
   26  0.003  0.000  0.023  0.000  0.000  0.000  0.000  0.000  0.000  0.026
   27  0.000  0.000  0.000  0.000  0.000  0.000  0.000  0.000  0.000  0.000
   28  0.000  0.000  0.000  0.000  0.000  0.000  0.000  0.000  0.000  0.000
   29  0.003  0.000  0.023  0.000  0.000  0.000  0.000  0.000  0.000  0.026
   30  0.003  0.000  0.023  0.000  0.000  0.000  0.000  0.000  0.000  0.026
   31  0.003  0.000  0.023  0.000  0.000  0.000  0.000  0.000  0.000  0.026
   32  0.003  0.000  0.023  0.000  0.000  0.000  0.000  0.000  0.000  0.026
   33  0.003  0.000  0.023  0.000  0.000  0.000  0.000  0.000  0.000  0.026
   34  0.003  0.000  0.023  0.000  0.000  0.000  0.000  0.000  0.000  0.026
   35  0.000  0.000  0.000  0.000  0.000  0.000  0.000  0.000  0.000  0.000
   36  0.000  0.000  0.000  0.000  0.000  0.000  0.000  0.000  0.000  0.000
tot    0.049  0.030  0.366  0.029  0.115  0.000  0.006  0.000  0.114  0.708
 
band    57 # energy   -4.51776182 # occ.  1.00000000
 
ion      s     py     pz     px    dxy    dyz    dz2    dxz  x2-y2    tot
    1  0.000  0.000  0.001  0.000  0.000  0.000  0.000  0.015  0.000  0.016
    2  0.000  0.000  0.001  0.000  0.000  0.013  0.000  0.002  0.000  0.016
    3  0.000  0.000  0.001  0.000  0.000  0.013  0.000  0.002  0.000  0.016
    4  0.000  0.000  0.002  0.000  0.000  0.010  0.000  0.030  0.000  0.042
    5  0.000  0.000  0.001  0.000  0.000  0.013  0.000  0.002  0.000  0.016
    6  0.000  0.000  0.001  0.000  0.000  0.000  0.000  0.015  0.000  0.016
    7  0.000  0.000  0.002  0.000  0.000  0.010  0.000  0.030  0.000  0.042
    8  0.000  0.000  0.001  0.000  0.000  0.000  0.000  0.015  0.000  0.016
    9  0.000  0.000  0.002  0.000  0.000  0.010  0.000  0.030  0.000  0.042
   10  0.000  0.000  0.001  0.000  0.000  0.013  0.000  0.002  0.000  0.016
   11  0.000  0.000  0.002  0.000  0.000  0.010  0.000  0.030  0.000  0.042
   12  0.000  0.000  0.001  0.000  0.000  0.000  0.000  0.015  0.000  0.016
   13  0.001  0.000  0.004  0.001  0.000  0.000  0.000  0.000  0.000  0.006
   14  0.000  0.013  0.001  0.007  0.000  0.000  0.000  0.000  0.000  0.022
   15  0.000  0.013  0.001  0.007  0.000  0.000  0.000  0.000  0.000  0.022
   16  0.000  0.017  0.001  0.003  0.000  0.000  0.000  0.000  0.000  0.022
   17  0.000  0.017  0.001  0.003  0.000  0.000  0.000  0.000  0.000  0.022
   18  0.000  0.017  0.001  0.003  0.000  0.000  0.000  0.000  0.000  0.022
   19  0.000  0.017  0.001  0.003  0.000  0.000  0.000  0.000  0.000  0.022
   20  0.001  0.000  0.004  0.001  0.000  0.000  0.000  0.000  0.000  0.006
   21  0.000  0.013  0.001  0.007  0.000  0.000  0.000  0.000  0.000  0.022
   22  0.000  0.013  0.001  0.007  0.000  0.000  0.000  0.000  0.000  0.022
   23  0.001  0.000  0.004  0.001  0.000  0.000  0.000  0.000  0.000  0.006
   24  0.001  0.000  0.004  0.001  0.000  0.000  0.000  0.000  0.000  0.006
   25  0.000  0.013  0.001  0.007  0.000  0.000  0.000  0.000  0.000  0.022
   26  0.000  0.013  0.001  0.007  0.000  0.000  0.000  0.000  0.000  0.022
   27  0.001  0.000  0.004  0.001  0.000  0.000  0.000  0.000  0.000  0.006
   28  0.001  0.000  0.004  0.001  0.000  0.000  0.000  0.000  0.000  0.006
   29  0.000  0.017  0.001  0.003  0.000  0.000  0.000  0.000  0.000  0.022
   30  0.000  0.017  0.001  0.003  0.000  0.000  0.000  0.000  0.000  0.022
   31  0.000  0.017  0.001  0.003  0.000  0.000  0.000  0.000  0.000  0.022
   32  0.000  0.017  0.001  0.003  0.000  0.000  0.000  0.000  0.000  0.022
   33  0.000  0.013  0.001  0.007  0.000  0.000  0.000  0.000  0.000  0.022
   34  0.000  0.013  0.001  0.007  0.000  0.000  0.000  0.000  0.000  0.022
   35  0.001  0.000  0.004  0.001  0.000  0.000  0.000  0.000  0.000  0.006
   36  0.001  0.000  0.004  0.001  0.000  0.000  0.000  0.000  0.000  0.006
tot    0.008  0.243  0.065  0.088  0.001  0.094  0.001  0.191  0.000  0.691
 
band    58 # energy   -4.51750529 # occ.  1.00000000
 
ion      s     py     pz     px    dxy    dyz    dz2    dxz  x2-y2    tot
    1  0.000  0.000  0.002  0.000  0.000  0.015  0.000  0.016  0.000  0.033
    2  0.000  0.000  0.002  0.000  0.000  0.002  0.000  0.029  0.000  0.033
    3  0.000  0.000  0.002  0.000  0.000  0.002  0.000  0.029  0.000  0.033
    4  0.000  0.000  0.000  0.000  0.000  0.005  0.000  0.002  0.000  0.007
    5  0.000  0.000  0.002  0.000  0.000  0.002  0.000  0.029  0.000  0.033
    6  0.000  0.000  0.002  0.000  0.000  0.015  0.000  0.016  0.000  0.033
    7  0.000  0.000  0.000  0.000  0.000  0.005  0.000  0.002  0.000  0.007
    8  0.000  0.000  0.002  0.000  0.000  0.015  0.000  0.016  0.000  0.033
    9  0.000  0.000  0.000  0.000  0.000  0.005  0.000  0.002  0.000  0.007
   10  0.000  0.000  0.002  0.000  0.000  0.002  0.000  0.029  0.000  0.033
   11  0.000  0.000  0.000  0.000  0.000  0.005  0.000  0.002  0.000  0.007
   12  0.000  0.000  0.002  0.000  0.000  0.015  0.000  0.016  0.000  0.033
   13  0.000  0.020  0.000  0.007  0.000  0.000  0.000  0.000  0.000  0.027
   14  0.000  0.007  0.003  0.000  0.000  0.000  0.000  0.000  0.000  0.011
   15  0.000  0.007  0.003  0.000  0.000  0.000  0.000  0.000  0.000  0.011
   16  0.000  0.003  0.003  0.004  0.000  0.000  0.000  0.000  0.000  0.011
   17  0.000  0.003  0.003  0.004  0.000  0.000  0.000  0.000  0.000  0.011
   18  0.000  0.003  0.003  0.004  0.000  0.000  0.000  0.000  0.000  0.011
   19  0.000  0.003  0.003  0.004  0.000  0.000  0.000  0.000  0.000  0.011
   20  0.000  0.020  0.000  0.007  0.000  0.000  0.000  0.000  0.000  0.027
   21  0.000  0.007  0.003  0.000  0.000  0.000  0.000  0.000  0.000  0.011
   22  0.000  0.007  0.003  0.000  0.000  0.000  0.000  0.000  0.000  0.011
   23  0.000  0.020  0.000  0.007  0.000  0.000  0.000  0.000  0.000  0.027
   24  0.000  0.020  0.000  0.007  0.000  0.000  0.000  0.000  0.000  0.027
   25  0.000  0.007  0.003  0.000  0.000  0.000  0.000  0.000  0.000  0.011
   26  0.000  0.007  0.003  0.000  0.000  0.000  0.000  0.000  0.000  0.011
   27  0.000  0.020  0.000  0.007  0.000  0.000  0.000  0.000  0.000  0.027
   28  0.000  0.020  0.000  0.007  0.000  0.000  0.000  0.000  0.000  0.027
   29  0.000  0.003  0.003  0.004  0.000  0.000  0.000  0.000  0.000  0.011
   30  0.000  0.003  0.003  0.004  0.000  0.000  0.000  0.000  0.000  0.011
   31  0.000  0.003  0.003  0.004  0.000  0.000  0.000  0.000  0.000  0.011
   32  0.000  0.003  0.003  0.004  0.000  0.000  0.000  0.000  0.000  0.011
   33  0.000  0.007  0.003  0.000  0.000  0.000  0.000  0.000  0.000  0.011
   34  0.000  0.007  0.003  0.000  0.000  0.000  0.000  0.000  0.000  0.011
   35  0.000  0.020  0.000  0.007  0.000  0.000  0.000  0.000  0.000  0.027
   36  0.000  0.020  0.000  0.007  0.000  0.000  0.000  0.000  0.000  0.027
tot    0.008  0.243  0.065  0.088  0.001  0.094  0.001  0.191  0.000  0.691
 
band    59 # energy   -4.44125108 # occ.  1.00000000
 
ion      s     py     pz     px    dxy    dyz    dz2    dxz  x2-y2    tot
    1  0.000  0.000  0.001  0.000  0.000  0.007  0.000  0.021  0.000  0.029
    2  0.000  0.000  0.000  0.000  0.000  0.006  0.000  0.018  0.000  0.024
    3  0.000  0.000  0.001  0.000  0.000  0.007  0.000  0.021  0.000  0.029
    4  0.000  0.000  0.001  0.000  0.000  0.007  0.000  0.021  0.000  0.030
    5  0.000  0.000  0.000  0.000  0.000  0.006  0.000  0.018  0.000  0.024
    6  0.000  0.000  0.000  0.000  0.000  0.006  0.000  0.018  0.000  0.024
    7  0.000  0.000  0.000  0.000  0.000  0.006  0.000  0.018  0.000  0.024
    8  0.000  0.000  0.000  0.000  0.000  0.006  0.000  0.018  0.000  0.024
    9  0.000  0.000  0.000  0.000  0.000  0.006  0.000  0.018  0.000  0.024
   10  0.000  0.000  0.001  0.000  0.000  0.007  0.000  0.021  0.000  0.029
   11  0.000  0.000  0.001  0.000  0.000  0.007  0.000  0.021  0.000  0.030
   12  0.000  0.000  0.001  0.000  0.000  0.007  0.000  0.021  0.000  0.029
   13  0.001  0.003  0.000  0.010  0.000  0.000  0.000  0.000  0.000  0.014
   14  0.001  0.003  0.000  0.010  0.000  0.000  0.000  0.000  0.000  0.014
   15  0.001  0.003  0.000  0.010  0.000  0.000  0.000  0.000  0.000  0.014
   16  0.000  0.002  0.010  0.006  0.000  0.000  0.000  0.000  0.000  0.018
   17  0.000  0.002  0.010  0.006  0.000  0.000  0.000  0.000  0.000  0.018
   18  0.001  0.003  0.000  0.010  0.000  0.000  0.000  0.000  0.000  0.014
   19  0.001  0.003  0.000  0.010  0.000  0.000  0.000  0.000  0.000  0.014
   20  0.001  0.003  0.000  0.010  0.000  0.000  0.000  0.000  0.000  0.014
   21  0.001  0.003  0.000  0.010  0.000  0.000  0.000  0.000  0.000  0.014
   22  0.001  0.003  0.000  0.010  0.000  0.000  0.000  0.000  0.000  0.014
   23  0.000  0.002  0.010  0.006  0.000  0.000  0.000  0.000  0.000  0.018
   24  0.000  0.002  0.010  0.006  0.000  0.000  0.000  0.000  0.000  0.018
   25  0.000  0.002  0.010  0.006  0.000  0.000  0.000  0.000  0.000  0.018
   26  0.000  0.002  0.010  0.006  0.000  0.000  0.000  0.000  0.000  0.018
   27  0.001  0.003  0.000  0.010  0.000  0.000  0.000  0.000  0.000  0.014
   28  0.001  0.003  0.000  0.010  0.000  0.000  0.000  0.000  0.000  0.014
   29  0.000  0.002  0.010  0.006  0.000  0.000  0.000  0.000  0.000  0.018
   30  0.001  0.003  0.000  0.010  0.000  0.000  0.000  0.000  0.000  0.014
   31  0.001  0.003  0.000  0.010  0.000  0.000  0.000  0.000  0.000  0.014
   32  0.000  0.002  0.010  0.006  0.000  0.000  0.000  0.000  0.000  0.018
   33  0.000  0.002  0.010  0.006  0.000  0.000  0.000  0.000  0.000  0.018
   34  0.000  0.002  0.010  0.006  0.000  0.000  0.000  0.000  0.000  0.018
   35  0.000  0.002  0.010  0.006  0.000  0.000  0.000  0.000  0.000  0.018
   36  0.000  0.002  0.010  0.006  0.000  0.000  0.000  0.000  0.000  0.018
tot    0.008  0.062  0.123  0.186  0.003  0.079  0.001  0.236  0.001  0.699
 
band    60 # energy   -4.44019933 # occ.  1.00000000
 
ion      s     py     pz     px    dxy    dyz    dz2    dxz  x2-y2    tot
    1  0.000  0.000  0.000  0.000  0.000  0.006  0.000  0.018  0.000  0.024
    2  0.000  0.000  0.001  0.000  0.000  0.007  0.000  0.021  0.000  0.029
    3  0.000  0.000  0.000  0.000  0.000  0.006  0.000  0.018  0.000  0.024
    4  0.000  0.000  0.000  0.000  0.000  0.006  0.000  0.018  0.000  0.024
    5  0.000  0.000  0.001  0.000  0.000  0.007  0.000  0.021  0.000  0.029
    6  0.000  0.000  0.001  0.000  0.000  0.007  0.000  0.021  0.000  0.029
    7  0.000  0.000  0.001  0.000  0.000  0.007  0.000  0.021  0.000  0.030
    8  0.000  0.000  0.001  0.000  0.000  0.007  0.000  0.021  0.000  0.029
    9  0.000  0.000  0.001  0.000  0.000  0.007  0.000  0.021  0.000  0.029
   10  0.000  0.000  0.000  0.000  0.000  0.006  0.000  0.018  0.000  0.024
   11  0.000  0.000  0.000  0.000  0.000  0.006  0.000  0.018  0.000  0.024
   12  0.000  0.000  0.000  0.000  0.000  0.006  0.000  0.018  0.000  0.024
   13  0.000  0.002  0.010  0.006  0.000  0.000  0.000  0.000  0.000  0.018
   14  0.000  0.002  0.010  0.006  0.000  0.000  0.000  0.000  0.000  0.018
   15  0.000  0.002  0.010  0.006  0.000  0.000  0.000  0.000  0.000  0.018
   16  0.001  0.003  0.000  0.010  0.000  0.000  0.000  0.000  0.000  0.014
   17  0.001  0.003  0.000  0.010  0.000  0.000  0.000  0.000  0.000  0.014
   18  0.000  0.002  0.010  0.006  0.000  0.000  0.000  0.000  0.000  0.018
   19  0.000  0.002  0.010  0.006  0.000  0.000  0.000  0.000  0.000  0.018
   20  0.000  0.002  0.010  0.006  0.000  0.000  0.000  0.000  0.000  0.018
   21  0.000  0.002  0.010  0.006  0.000  0.000  0.000  0.000  0.000  0.018
   22  0.000  0.002  0.010  0.006  0.000  0.000  0.000  0.000  0.000  0.018
   23  0.001  0.003  0.000  0.010  0.000  0.000  0.000  0.000  0.000  0.014
   24  0.001  0.003  0.000  0.010  0.000  0.000  0.000  0.000  0.000  0.014
   25  0.001  0.003  0.000  0.010  0.000  0.000  0.000  0.000  0.000  0.014
   26  0.001  0.003  0.000  0.010  0.000  0.000  0.000  0.000  0.000  0.014
   27  0.000  0.002  0.010  0.006  0.000  0.000  0.000  0.000  0.000  0.018
   28  0.000  0.002  0.010  0.006  0.000  0.000  0.000  0.000  0.000  0.018
   29  0.001  0.003  0.000  0.010  0.000  0.000  0.000  0.000  0.000  0.014
   30  0.000  0.002  0.010  0.006  0.000  0.000  0.000  0.000  0.000  0.018
   31  0.000  0.002  0.010  0.006  0.000  0.000  0.000  0.000  0.000  0.018
   32  0.001  0.003  0.000  0.010  0.000  0.000  0.000  0.000  0.000  0.014
   33  0.001  0.003  0.000  0.010  0.000  0.000  0.000  0.000  0.000  0.014
   34  0.001  0.003  0.000  0.010  0.000  0.000  0.000  0.000  0.000  0.014
   35  0.001  0.003  0.000  0.010  0.000  0.000  0.000  0.000  0.000  0.014
   36  0.001  0.003  0.000  0.010  0.000  0.000  0.000  0.000  0.000  0.014
tot    0.008  0.062  0.123  0.186  0.003  0.079  0.001  0.236  0.001  0.699
 
band    61 # energy   -4.07560383 # occ.  1.00000000
 
ion      s     py     pz     px    dxy    dyz    dz2    dxz  x2-y2    tot
    1  0.000  0.000  0.004  0.000  0.000  0.000  0.000  0.000  0.000  0.004
    2  0.000  0.000  0.004  0.000  0.000  0.000  0.000  0.000  0.000  0.004
    3  0.000  0.000  0.004  0.000  0.000  0.000  0.000  0.000  0.000  0.004
    4  0.000  0.000  0.017  0.000  0.000  0.000  0.000  0.000  0.000  0.017
    5  0.000  0.000  0.004  0.000  0.000  0.000  0.000  0.000  0.000  0.004
    6  0.000  0.000  0.004  0.000  0.000  0.000  0.000  0.000  0.000  0.004
    7  0.000  0.000  0.017  0.000  0.000  0.000  0.000  0.000  0.000  0.017
    8  0.000  0.000  0.004  0.000  0.000  0.000  0.000  0.000  0.000  0.004
    9  0.000  0.000  0.017  0.000  0.000  0.000  0.000  0.000  0.000  0.017
   10  0.000  0.000  0.004  0.000  0.000  0.000  0.000  0.000  0.000  0.004
   11  0.000  0.000  0.017  0.000  0.000  0.000  0.000  0.000  0.000  0.017
   12  0.000  0.000  0.004  0.000  0.000  0.000  0.000  0.000  0.000  0.004
   13  0.000  0.005  0.000  0.015  0.000  0.000  0.000  0.000  0.000  0.020
   14  0.000  0.005  0.000  0.015  0.000  0.000  0.000  0.000  0.000  0.020
   15  0.000  0.005  0.000  0.015  0.000  0.000  0.000  0.000  0.000  0.020
   16  0.000  0.020  0.000  0.000  0.000  0.000  0.000  0.000  0.000  0.020
   17  0.000  0.020  0.000  0.000  0.000  0.000  0.000  0.000  0.000  0.020
   18  0.000  0.020  0.000  0.000  0.000  0.000  0.000  0.000  0.000  0.020
   19  0.000  0.020  0.000  0.000  0.000  0.000  0.000  0.000  0.000  0.020
   20  0.000  0.005  0.000  0.015  0.000  0.000  0.000  0.000  0.000  0.020
   21  0.000  0.005  0.000  0.015  0.000  0.000  0.000  0.000  0.000  0.020
   22  0.000  0.005  0.000  0.015  0.000  0.000  0.000  0.000  0.000  0.020
   23  0.000  0.005  0.000  0.015  0.000  0.000  0.000  0.000  0.000  0.020
   24  0.000  0.005  0.000  0.015  0.000  0.000  0.000  0.000  0.000  0.020
   25  0.000  0.005  0.000  0.015  0.000  0.000  0.000  0.000  0.000  0.020
   26  0.000  0.005  0.000  0.015  0.000  0.000  0.000  0.000  0.000  0.020
   27  0.000  0.005  0.000  0.015  0.000  0.000  0.000  0.000  0.000  0.020
   28  0.000  0.005  0.000  0.015  0.000  0.000  0.000  0.000  0.000  0.020
   29  0.000  0.020  0.000  0.000  0.000  0.000  0.000  0.000  0.000  0.020
   30  0.000  0.020  0.000  0.000  0.000  0.000  0.000  0.000  0.000  0.020
   31  0.000  0.020  0.000  0.000  0.000  0.000  0.000  0.000  0.000  0.020
   32  0.000  0.020  0.000  0.000  0.000  0.000  0.000  0.000  0.000  0.020
   33  0.000  0.005  0.000  0.015  0.000  0.000  0.000  0.000  0.000  0.020
   34  0.000  0.005  0.000  0.015  0.000  0.000  0.000  0.000  0.000  0.020
   35  0.000  0.005  0.000  0.015  0.000  0.000  0.000  0.000  0.000  0.020
   36  0.000  0.005  0.000  0.015  0.000  0.000  0.000  0.000  0.000  0.020
tot    0.000  0.236  0.102  0.236  0.003  0.000  0.000  0.000  0.003  0.581
 
band    62 # energy   -4.07488538 # occ.  1.00000000
 
ion      s     py     pz     px    dxy    dyz    dz2    dxz  x2-y2    tot
    1  0.000  0.000  0.013  0.000  0.000  0.000  0.000  0.000  0.000  0.013
    2  0.000  0.000  0.013  0.000  0.000  0.000  0.000  0.000  0.000  0.013
    3  0.000  0.000  0.013  0.000  0.000  0.000  0.000  0.000  0.000  0.013
    4  0.000  0.000  0.000  0.000  0.000  0.000  0.000  0.000  0.000  0.000
    5  0.000  0.000  0.013  0.000  0.000  0.000  0.000  0.000  0.000  0.013
    6  0.000  0.000  0.013  0.000  0.000  0.000  0.000  0.000  0.000  0.013
    7  0.000  0.000  0.000  0.000  0.000  0.000  0.000  0.000  0.000  0.000
    8  0.000  0.000  0.013  0.000  0.000  0.000  0.000  0.000  0.000  0.013
    9  0.000  0.000  0.000  0.000  0.000  0.000  0.000  0.000  0.000  0.000
   10  0.000  0.000  0.013  0.000  0.000  0.000  0.000  0.000  0.000  0.013
   11  0.000  0.000  0.000  0.000  0.000  0.000  0.000  0.000  0.000  0.000
   12  0.000  0.000  0.013  0.000  0.000  0.000  0.000  0.000  0.000  0.013
   13  0.000  0.015  0.000  0.005  0.000  0.000  0.000  0.000  0.000  0.020
   14  0.000  0.015  0.000  0.005  0.000  0.000  0.000  0.000  0.000  0.020
   15  0.000  0.015  0.000  0.005  0.000  0.000  0.000  0.000  0.000  0.020
   16  0.000  0.000  0.000  0.019  0.000  0.000  0.000  0.000  0.000  0.020
   17  0.000  0.000  0.000  0.019  0.000  0.000  0.000  0.000  0.000  0.020
   18  0.000  0.000  0.000  0.020  0.000  0.000  0.000  0.000  0.000  0.020
   19  0.000  0.000  0.000  0.020  0.000  0.000  0.000  0.000  0.000  0.020
   20  0.000  0.015  0.000  0.005  0.000  0.000  0.000  0.000  0.000  0.020
   21  0.000  0.015  0.000  0.005  0.000  0.000  0.000  0.000  0.000  0.020
   22  0.000  0.015  0.000  0.005  0.000  0.000  0.000  0.000  0.000  0.020
   23  0.000  0.015  0.000  0.005  0.000  0.000  0.000  0.000  0.000  0.020
   24  0.000  0.015  0.000  0.005  0.000  0.000  0.000  0.000  0.000  0.020
   25  0.000  0.015  0.000  0.005  0.000  0.000  0.000  0.000  0.000  0.020
   26  0.000  0.015  0.000  0.005  0.000  0.000  0.000  0.000  0.000  0.020
   27  0.000  0.015  0.000  0.005  0.000  0.000  0.000  0.000  0.000  0.020
   28  0.000  0.015  0.000  0.005  0.000  0.000  0.000  0.000  0.000  0.020
   29  0.000  0.000  0.000  0.019  0.000  0.000  0.000  0.000  0.000  0.020
   30  0.000  0.000  0.000  0.020  0.000  0.000  0.000  0.000  0.000  0.020
   31  0.000  0.000  0.000  0.020  0.000  0.000  0.000  0.000  0.000  0.020
   32  0.000  0.000  0.000  0.019  0.000  0.000  0.000  0.000  0.000  0.020
   33  0.000  0.015  0.000  0.005  0.000  0.000  0.000  0.000  0.000  0.020
   34  0.000  0.015  0.000  0.005  0.000  0.000  0.000  0.000  0.000  0.020
   35  0.000  0.015  0.000  0.005  0.000  0.000  0.000  0.000  0.000  0.020
   36  0.000  0.015  0.000  0.005  0.000  0.000  0.000  0.000  0.000  0.020
tot    0.000  0.236  0.102  0.236  0.003  0.000  0.000  0.000  0.003  0.581
 
band    63 # energy   -4.01570274 # occ.  1.00000000
 
ion      s     py     pz     px    dxy    dyz    dz2    dxz  x2-y2    tot
    1  0.000  0.000  0.000  0.000  0.000  0.002  0.000  0.023  0.000  0.025
    2  0.000  0.000  0.000  0.000  0.000  0.024  0.000  0.001  0.000  0.025
    3  0.000  0.000  0.000  0.000  0.000  0.024  0.000  0.001  0.000  0.025
    4  0.000  0.000  0.000  0.000  0.000  0.042  0.000  0.014  0.000  0.056
    5  0.000  0.000  0.000  0.000  0.000  0.024  0.000  0.001  0.000  0.025
    6  0.000  0.000  0.000  0.000  0.000  0.002  0.000  0.023  0.000  0.025
    7  0.000  0.000  0.000  0.000  0.000  0.042  0.000  0.014  0.000  0.056
    8  0.000  0.000  0.000  0.000  0.000  0.002  0.000  0.023  0.000  0.025
    9  0.000  0.000  0.000  0.000  0.000  0.042  0.000  0.014  0.000  0.056
   10  0.000  0.000  0.000  0.000  0.000  0.024  0.000  0.001  0.000  0.025
   11  0.000  0.000  0.000  0.000  0.000  0.042  0.000  0.014  0.000  0.056
   12  0.000  0.000  0.000  0.000  0.000  0.002  0.000  0.023  0.000  0.025
   13  0.000  0.000  0.000  0.000  0.000  0.000  0.000  0.000  0.000  0.001
   14  0.001  0.003  0.008  0.009  0.000  0.000  0.000  0.000  0.000  0.021
   15  0.001  0.003  0.008  0.009  0.000  0.000  0.000  0.000  0.000  0.021
   16  0.001  0.003  0.008  0.010  0.000  0.000  0.000  0.000  0.000  0.021
   17  0.001  0.003  0.008  0.010  0.000  0.000  0.000  0.000  0.000  0.021
   18  0.001  0.003  0.008  0.009  0.000  0.000  0.000  0.000  0.000  0.021
   19  0.001  0.003  0.008  0.009  0.000  0.000  0.000  0.000  0.000  0.021
   20  0.000  0.000  0.000  0.000  0.000  0.000  0.000  0.000  0.000  0.001
   21  0.001  0.003  0.008  0.009  0.000  0.000  0.000  0.000  0.000  0.021
   22  0.001  0.003  0.008  0.009  0.000  0.000  0.000  0.000  0.000  0.021
   23  0.000  0.000  0.000  0.000  0.000  0.000  0.000  0.000  0.000  0.001
   24  0.000  0.000  0.000  0.000  0.000  0.000  0.000  0.000  0.000  0.001
   25  0.001  0.004  0.008  0.009  0.000  0.000  0.000  0.000  0.000  0.021
   26  0.001  0.004  0.008  0.009  0.000  0.000  0.000  0.000  0.000  0.021
   27  0.000  0.000  0.000  0.000  0.000  0.000  0.000  0.000  0.000  0.001
   28  0.000  0.000  0.000  0.000  0.000  0.000  0.000  0.000  0.000  0.001
   29  0.001  0.003  0.008  0.010  0.000  0.000  0.000  0.000  0.000  0.021
   30  0.001  0.003  0.008  0.009  0.000  0.000  0.000  0.000  0.000  0.021
   31  0.001  0.003  0.008  0.009  0.000  0.000  0.000  0.000  0.000  0.021
   32  0.001  0.003  0.008  0.010  0.000  0.000  0.000  0.000  0.000  0.021
   33  0.001  0.004  0.008  0.009  0.000  0.000  0.000  0.000  0.000  0.021
   34  0.001  0.004  0.008  0.009  0.000  0.000  0.000  0.000  0.000  0.021
   35  0.000  0.000  0.000  0.000  0.000  0.000  0.000  0.000  0.000  0.001
   36  0.000  0.000  0.000  0.000  0.000  0.000  0.000  0.000  0.000  0.001
tot    0.010  0.050  0.123  0.147  0.002  0.275  0.000  0.157  0.005  0.768
 
band    64 # energy   -4.01547028 # occ.  1.00000000
 
ion      s     py     pz     px    dxy    dyz    dz2    dxz  x2-y2    tot
    1  0.000  0.000  0.000  0.000  0.000  0.043  0.000  0.002  0.000  0.046
    2  0.000  0.000  0.000  0.000  0.000  0.021  0.000  0.024  0.000  0.046
    3  0.000  0.000  0.000  0.000  0.000  0.021  0.000  0.024  0.000  0.046
    4  0.000  0.000  0.000  0.000  0.000  0.004  0.000  0.012  0.000  0.016
    5  0.000  0.000  0.000  0.000  0.000  0.021  0.000  0.024  0.000  0.046
    6  0.000  0.000  0.000  0.000  0.000  0.043  0.000  0.002  0.000  0.046
    7  0.000  0.000  0.000  0.000  0.000  0.004  0.000  0.012  0.000  0.016
    8  0.000  0.000  0.000  0.000  0.000  0.043  0.000  0.002  0.000  0.046
    9  0.000  0.000  0.000  0.000  0.000  0.004  0.000  0.012  0.000  0.016
   10  0.000  0.000  0.000  0.000  0.000  0.021  0.000  0.024  0.000  0.046
   11  0.000  0.000  0.000  0.000  0.000  0.004  0.000  0.012  0.000  0.016
   12  0.000  0.000  0.000  0.000  0.000  0.043  0.000  0.002  0.000  0.046
   13  0.001  0.004  0.010  0.012  0.000  0.000  0.000  0.000  0.000  0.028
   14  0.000  0.001  0.003  0.003  0.000  0.000  0.000  0.000  0.000  0.007
   15  0.000  0.001  0.003  0.003  0.000  0.000  0.000  0.000  0.000  0.007
   16  0.000  0.001  0.003  0.003  0.000  0.000  0.000  0.000  0.000  0.007
   17  0.000  0.001  0.003  0.003  0.000  0.000  0.000  0.000  0.000  0.007
   18  0.000  0.001  0.003  0.003  0.000  0.000  0.000  0.000  0.000  0.007
   19  0.000  0.001  0.003  0.003  0.000  0.000  0.000  0.000  0.000  0.007
   20  0.001  0.004  0.010  0.012  0.000  0.000  0.000  0.000  0.000  0.028
   21  0.000  0.001  0.003  0.003  0.000  0.000  0.000  0.000  0.000  0.007
   22  0.000  0.001  0.003  0.003  0.000  0.000  0.000  0.000  0.000  0.007
   23  0.001  0.004  0.010  0.012  0.000  0.000  0.000  0.000  0.000  0.028
   24  0.001  0.004  0.010  0.012  0.000  0.000  0.000  0.000  0.000  0.028
   25  0.000  0.001  0.003  0.004  0.000  0.000  0.000  0.000  0.000  0.007
   26  0.000  0.001  0.003  0.004  0.000  0.000  0.000  0.000  0.000  0.007
   27  0.001  0.004  0.010  0.012  0.000  0.000  0.000  0.000  0.000  0.028
   28  0.001  0.004  0.010  0.012  0.000  0.000  0.000  0.000  0.000  0.028
   29  0.000  0.001  0.003  0.003  0.000  0.000  0.000  0.000  0.000  0.007
   30  0.000  0.001  0.003  0.003  0.000  0.000  0.000  0.000  0.000  0.007
   31  0.000  0.001  0.003  0.003  0.000  0.000  0.000  0.000  0.000  0.007
   32  0.000  0.001  0.003  0.003  0.000  0.000  0.000  0.000  0.000  0.007
   33  0.000  0.001  0.003  0.004  0.000  0.000  0.000  0.000  0.000  0.007
   34  0.000  0.001  0.003  0.004  0.000  0.000  0.000  0.000  0.000  0.007
   35  0.001  0.004  0.010  0.012  0.000  0.000  0.000  0.000  0.000  0.028
   36  0.001  0.004  0.010  0.012  0.000  0.000  0.000  0.000  0.000  0.028
tot    0.010  0.050  0.123  0.147  0.002  0.275  0.000  0.157  0.005  0.768
 
band    65 # energy   -3.90627762 # occ.  1.00000000
 
ion      s     py     pz     px    dxy    dyz    dz2    dxz  x2-y2    tot
    1  0.000  0.000  0.000  0.000  0.000  0.002  0.000  0.025  0.000  0.027
    2  0.000  0.000  0.000  0.000  0.000  0.000  0.000  0.013  0.000  0.013
    3  0.000  0.000  0.000  0.000  0.000  0.013  0.000  0.014  0.000  0.027
    4  0.000  0.000  0.001  0.000  0.000  0.026  0.000  0.077  0.000  0.103
    5  0.000  0.000  0.000  0.000  0.000  0.000  0.000  0.013  0.000  0.013
    6  0.000  0.000  0.000  0.000  0.000  0.010  0.000  0.003  0.000  0.013
    7  0.000  0.000  0.000  0.000  0.000  0.010  0.000  0.029  0.000  0.038
    8  0.000  0.000  0.000  0.000  0.000  0.010  0.000  0.003  0.000  0.013
    9  0.000  0.000  0.000  0.000  0.000  0.010  0.000  0.029  0.000  0.038
   10  0.000  0.000  0.000  0.000  0.000  0.013  0.000  0.014  0.000  0.027
   11  0.000  0.000  0.001  0.000  0.000  0.026  0.000  0.077  0.000  0.103
   12  0.000  0.000  0.000  0.000  0.000  0.002  0.000  0.025  0.000  0.027
   13  0.000  0.007  0.001  0.022  0.000  0.000  0.000  0.000  0.000  0.032
   14  0.000  0.000  0.000  0.010  0.000  0.000  0.000  0.000  0.000  0.011
   15  0.000  0.000  0.000  0.010  0.000  0.000  0.000  0.000  0.000  0.011
   16  0.000  0.001  0.002  0.005  0.000  0.000  0.000  0.000  0.000  0.008
   17  0.000  0.001  0.002  0.005  0.000  0.000  0.000  0.000  0.000  0.008
   18  0.000  0.008  0.000  0.002  0.000  0.000  0.000  0.000  0.000  0.011
   19  0.000  0.008  0.000  0.002  0.000  0.000  0.000  0.000  0.000  0.011
   20  0.000  0.007  0.001  0.022  0.000  0.000  0.000  0.000  0.000  0.032
   21  0.000  0.000  0.000  0.010  0.000  0.000  0.000  0.000  0.000  0.011
   22  0.000  0.000  0.000  0.010  0.000  0.000  0.000  0.000  0.000  0.011
   23  0.000  0.002  0.008  0.005  0.000  0.000  0.000  0.000  0.000  0.015
   24  0.000  0.002  0.008  0.005  0.000  0.000  0.000  0.000  0.000  0.015
   25  0.000  0.006  0.002  0.000  0.000  0.000  0.000  0.000  0.000  0.008
   26  0.000  0.006  0.002  0.000  0.000  0.000  0.000  0.000  0.000  0.008
   27  0.000  0.007  0.001  0.022  0.000  0.000  0.000  0.000  0.000  0.032
   28  0.000  0.007  0.001  0.022  0.000  0.000  0.000  0.000  0.000  0.032
   29  0.000  0.001  0.002  0.005  0.000  0.000  0.000  0.000  0.000  0.008
   30  0.000  0.008  0.000  0.002  0.000  0.000  0.000  0.000  0.000  0.011
   31  0.000  0.008  0.000  0.002  0.000  0.000  0.000  0.000  0.000  0.011
   32  0.000  0.001  0.002  0.005  0.000  0.000  0.000  0.000  0.000  0.008
   33  0.000  0.006  0.002  0.000  0.000  0.000  0.000  0.000  0.000  0.008
   34  0.000  0.006  0.002  0.000  0.000  0.000  0.000  0.000  0.000  0.008
   35  0.000  0.002  0.008  0.005  0.000  0.000  0.000  0.000  0.000  0.015
   36  0.000  0.002  0.008  0.005  0.000  0.000  0.000  0.000  0.000  0.015
tot    0.003  0.099  0.060  0.179  0.002  0.123  0.000  0.324  0.001  0.791
 
band    66 # energy   -3.90597267 # occ.  1.00000000
 
ion      s     py     pz     px    dxy    dyz    dz2    dxz  x2-y2    tot
    1  0.000  0.000  0.000  0.000  0.000  0.025  0.000  0.052  0.000  0.078
    2  0.000  0.000  0.000  0.000  0.000  0.013  0.000  0.017  0.000  0.030
    3  0.000  0.000  0.000  0.000  0.000  0.014  0.000  0.063  0.000  0.078
    4  0.000  0.000  0.000  0.000  0.000  0.002  0.000  0.001  0.000  0.002
    5  0.000  0.000  0.000  0.000  0.000  0.013  0.000  0.017  0.000  0.030
    6  0.000  0.000  0.000  0.000  0.000  0.003  0.000  0.026  0.000  0.030
    7  0.000  0.000  0.000  0.000  0.000  0.003  0.000  0.001  0.000  0.004
    8  0.000  0.000  0.000  0.000  0.000  0.003  0.000  0.026  0.000  0.030
    9  0.000  0.000  0.000  0.000  0.000  0.003  0.000  0.001  0.000  0.004
   10  0.000  0.000  0.000  0.000  0.000  0.014  0.000  0.063  0.000  0.078
   11  0.000  0.000  0.000  0.000  0.000  0.002  0.000  0.001  0.000  0.002
   12  0.000  0.000  0.000  0.000  0.000  0.025  0.000  0.052  0.000  0.078
   13  0.000  0.003  0.000  0.001  0.000  0.000  0.000  0.000  0.000  0.004
   14  0.000  0.010  0.001  0.013  0.000  0.000  0.000  0.000  0.000  0.025
   15  0.000  0.010  0.001  0.013  0.000  0.000  0.000  0.000  0.000  0.025
   16  0.000  0.005  0.006  0.002  0.000  0.000  0.000  0.000  0.000  0.013
   17  0.000  0.005  0.006  0.002  0.000  0.000  0.000  0.000  0.000  0.013
   18  0.000  0.002  0.001  0.021  0.000  0.000  0.000  0.000  0.000  0.025
   19  0.000  0.002  0.001  0.021  0.000  0.000  0.000  0.000  0.000  0.025
   20  0.000  0.003  0.000  0.001  0.000  0.000  0.000  0.000  0.000  0.004
   21  0.000  0.010  0.001  0.013  0.000  0.000  0.000  0.000  0.000  0.025
   22  0.000  0.010  0.001  0.013  0.000  0.000  0.000  0.000  0.000  0.025
   23  0.000  0.004  0.000  0.001  0.000  0.000  0.000  0.000  0.000  0.006
   24  0.000  0.004  0.000  0.001  0.000  0.000  0.000  0.000  0.000  0.006
   25  0.000  0.000  0.006  0.006  0.000  0.000  0.000  0.000  0.000  0.013
   26  0.000  0.000  0.006  0.006  0.000  0.000  0.000  0.000  0.000  0.013
   27  0.000  0.003  0.000  0.001  0.000  0.000  0.000  0.000  0.000  0.004
   28  0.000  0.003  0.000  0.001  0.000  0.000  0.000  0.000  0.000  0.004
   29  0.000  0.005  0.006  0.002  0.000  0.000  0.000  0.000  0.000  0.013
   30  0.000  0.002  0.001  0.021  0.000  0.000  0.000  0.000  0.000  0.025
   31  0.000  0.002  0.001  0.021  0.000  0.000  0.000  0.000  0.000  0.025
   32  0.000  0.005  0.006  0.002  0.000  0.000  0.000  0.000  0.000  0.013
   33  0.000  0.000  0.006  0.006  0.000  0.000  0.000  0.000  0.000  0.013
   34  0.000  0.000  0.006  0.006  0.000  0.000  0.000  0.000  0.000  0.013
   35  0.000  0.004  0.000  0.001  0.000  0.000  0.000  0.000  0.000  0.006
   36  0.000  0.004  0.000  0.001  0.000  0.000  0.000  0.000  0.000  0.006
tot    0.003  0.099  0.060  0.179  0.002  0.123  0.000  0.324  0.001  0.791
 
band    67 # energy   -3.90564411 # occ.  1.00000000
 
ion      s     py     pz     px    dxy    dyz    dz2    dxz  x2-y2    tot
    1  0.000  0.000  0.000  0.000  0.000  0.010  0.000  0.003  0.000  0.013
    2  0.000  0.000  0.000  0.000  0.000  0.013  0.000  0.014  0.000  0.027
    3  0.000  0.000  0.000  0.000  0.000  0.000  0.000  0.013  0.000  0.013
    4  0.000  0.000  0.000  0.000  0.000  0.010  0.000  0.029  0.000  0.038
    5  0.000  0.000  0.000  0.000  0.000  0.013  0.000  0.014  0.000  0.027
    6  0.000  0.000  0.000  0.000  0.000  0.002  0.000  0.025  0.000  0.027
    7  0.000  0.000  0.001  0.000  0.000  0.026  0.000  0.077  0.000  0.103
    8  0.000  0.000  0.000  0.000  0.000  0.002  0.000  0.025  0.000  0.027
    9  0.000  0.000  0.001  0.000  0.000  0.026  0.000  0.077  0.000  0.103
   10  0.000  0.000  0.000  0.000  0.000  0.000  0.000  0.013  0.000  0.013
   11  0.000  0.000  0.000  0.000  0.000  0.010  0.000  0.029  0.000  0.038
   12  0.000  0.000  0.000  0.000  0.000  0.010  0.000  0.003  0.000  0.013
   13  0.000  0.002  0.008  0.005  0.000  0.000  0.000  0.000  0.000  0.015
   14  0.000  0.006  0.002  0.000  0.000  0.000  0.000  0.000  0.000  0.008
   15  0.000  0.006  0.002  0.000  0.000  0.000  0.000  0.000  0.000  0.008
   16  0.000  0.008  0.000  0.002  0.000  0.000  0.000  0.000  0.000  0.011
   17  0.000  0.008  0.000  0.002  0.000  0.000  0.000  0.000  0.000  0.011
   18  0.000  0.001  0.002  0.005  0.000  0.000  0.000  0.000  0.000  0.008
   19  0.000  0.001  0.002  0.005  0.000  0.000  0.000  0.000  0.000  0.008
   20  0.000  0.002  0.008  0.005  0.000  0.000  0.000  0.000  0.000  0.015
   21  0.000  0.006  0.002  0.000  0.000  0.000  0.000  0.000  0.000  0.008
   22  0.000  0.006  0.002  0.000  0.000  0.000  0.000  0.000  0.000  0.008
   23  0.000  0.007  0.001  0.022  0.000  0.000  0.000  0.000  0.000  0.032
   24  0.000  0.007  0.001  0.022  0.000  0.000  0.000  0.000  0.000  0.032
   25  0.000  0.000  0.000  0.010  0.000  0.000  0.000  0.000  0.000  0.011
   26  0.000  0.000  0.000  0.010  0.000  0.000  0.000  0.000  0.000  0.011
   27  0.000  0.002  0.008  0.005  0.000  0.000  0.000  0.000  0.000  0.015
   28  0.000  0.002  0.008  0.005  0.000  0.000  0.000  0.000  0.000  0.015
   29  0.000  0.008  0.000  0.002  0.000  0.000  0.000  0.000  0.000  0.011
   30  0.000  0.001  0.002  0.005  0.000  0.000  0.000  0.000  0.000  0.008
   31  0.000  0.001  0.002  0.005  0.000  0.000  0.000  0.000  0.000  0.008
   32  0.000  0.008  0.000  0.002  0.000  0.000  0.000  0.000  0.000  0.011
   33  0.000  0.000  0.000  0.010  0.000  0.000  0.000  0.000  0.000  0.011
   34  0.000  0.000  0.000  0.010  0.000  0.000  0.000  0.000  0.000  0.011
   35  0.000  0.007  0.001  0.022  0.000  0.000  0.000  0.000  0.000  0.032
   36  0.000  0.007  0.001  0.022  0.000  0.000  0.000  0.000  0.000  0.032
tot    0.003  0.099  0.060  0.179  0.002  0.123  0.000  0.324  0.001  0.791
 
band    68 # energy   -3.90533730 # occ.  1.00000000
 
ion      s     py     pz     px    dxy    dyz    dz2    dxz  x2-y2    tot
    1  0.000  0.000  0.000  0.000  0.000  0.003  0.000  0.026  0.000  0.030
    2  0.000  0.000  0.000  0.000  0.000  0.014  0.000  0.063  0.000  0.078
    3  0.000  0.000  0.000  0.000  0.000  0.013  0.000  0.017  0.000  0.030
    4  0.000  0.000  0.000  0.000  0.000  0.003  0.000  0.001  0.000  0.004
    5  0.000  0.000  0.000  0.000  0.000  0.014  0.000  0.063  0.000  0.078
    6  0.000  0.000  0.000  0.000  0.000  0.025  0.000  0.052  0.000  0.078
    7  0.000  0.000  0.000  0.000  0.000  0.002  0.000  0.001  0.000  0.002
    8  0.000  0.000  0.000  0.000  0.000  0.025  0.000  0.052  0.000  0.078
    9  0.000  0.000  0.000  0.000  0.000  0.002  0.000  0.001  0.000  0.002
   10  0.000  0.000  0.000  0.000  0.000  0.013  0.000  0.017  0.000  0.030
   11  0.000  0.000  0.000  0.000  0.000  0.003  0.000  0.001  0.000  0.004
   12  0.000  0.000  0.000  0.000  0.000  0.003  0.000  0.026  0.000  0.030
   13  0.000  0.004  0.000  0.001  0.000  0.000  0.000  0.000  0.000  0.006
   14  0.000  0.000  0.006  0.006  0.000  0.000  0.000  0.000  0.000  0.013
   15  0.000  0.000  0.006  0.006  0.000  0.000  0.000  0.000  0.000  0.013
   16  0.000  0.002  0.001  0.021  0.000  0.000  0.000  0.000  0.000  0.025
   17  0.000  0.002  0.001  0.021  0.000  0.000  0.000  0.000  0.000  0.025
   18  0.000  0.005  0.006  0.002  0.000  0.000  0.000  0.000  0.000  0.013
   19  0.000  0.005  0.006  0.002  0.000  0.000  0.000  0.000  0.000  0.013
   20  0.000  0.004  0.000  0.001  0.000  0.000  0.000  0.000  0.000  0.006
   21  0.000  0.000  0.006  0.006  0.000  0.000  0.000  0.000  0.000  0.013
   22  0.000  0.000  0.006  0.006  0.000  0.000  0.000  0.000  0.000  0.013
   23  0.000  0.003  0.000  0.001  0.000  0.000  0.000  0.000  0.000  0.004
   24  0.000  0.003  0.000  0.001  0.000  0.000  0.000  0.000  0.000  0.004
   25  0.000  0.010  0.001  0.013  0.000  0.000  0.000  0.000  0.000  0.025
   26  0.000  0.010  0.001  0.013  0.000  0.000  0.000  0.000  0.000  0.025
   27  0.000  0.004  0.000  0.001  0.000  0.000  0.000  0.000  0.000  0.006
   28  0.000  0.004  0.000  0.001  0.000  0.000  0.000  0.000  0.000  0.006
   29  0.000  0.002  0.001  0.021  0.000  0.000  0.000  0.000  0.000  0.025
   30  0.000  0.005  0.006  0.002  0.000  0.000  0.000  0.000  0.000  0.013
   31  0.000  0.005  0.006  0.002  0.000  0.000  0.000  0.000  0.000  0.013
   32  0.000  0.002  0.001  0.021  0.000  0.000  0.000  0.000  0.000  0.025
   33  0.000  0.010  0.001  0.013  0.000  0.000  0.000  0.000  0.000  0.025
   34  0.000  0.010  0.001  0.013  0.000  0.000  0.000  0.000  0.000  0.025
   35  0.000  0.003  0.000  0.001  0.000  0.000  0.000  0.000  0.000  0.004
   36  0.000  0.003  0.000  0.001  0.000  0.000  0.000  0.000  0.000  0.004
tot    0.003  0.099  0.060  0.179  0.002  0.123  0.000  0.324  0.001  0.791
 
band    69 # energy   -3.89161399 # occ.  1.00000000
 
ion      s     py     pz     px    dxy    dyz    dz2    dxz  x2-y2    tot
    1  0.000  0.000  0.000  0.000  0.000  0.031  0.000  0.010  0.000  0.041
    2  0.000  0.000  0.000  0.000  0.000  0.031  0.000  0.010  0.000  0.041
    3  0.000  0.000  0.000  0.000  0.000  0.031  0.000  0.010  0.000  0.041
    4  0.000  0.000  0.000  0.000  0.000  0.031  0.000  0.010  0.000  0.041
    5  0.000  0.000  0.000  0.000  0.000  0.031  0.000  0.010  0.000  0.041
    6  0.000  0.000  0.000  0.000  0.000  0.031  0.000  0.010  0.000  0.041
    7  0.000  0.000  0.000  0.000  0.000  0.030  0.000  0.010  0.000  0.041
    8  0.000  0.000  0.000  0.000  0.000  0.031  0.000  0.010  0.000  0.041
    9  0.000  0.000  0.000  0.000  0.000  0.030  0.000  0.010  0.000  0.041
   10  0.000  0.000  0.000  0.000  0.000  0.031  0.000  0.010  0.000  0.041
   11  0.000  0.000  0.000  0.000  0.000  0.031  0.000  0.010  0.000  0.041
   12  0.000  0.000  0.000  0.000  0.000  0.031  0.000  0.010  0.000  0.041
   13  0.000  0.010  0.000  0.003  0.000  0.000  0.000  0.000  0.000  0.014
   14  0.000  0.010  0.000  0.003  0.000  0.000  0.000  0.000  0.000  0.014
   15  0.000  0.010  0.000  0.003  0.000  0.000  0.000  0.000  0.000  0.014
   16  0.000  0.010  0.000  0.003  0.000  0.000  0.000  0.000  0.000  0.014
   17  0.000  0.010  0.000  0.003  0.000  0.000  0.000  0.000  0.000  0.014
   18  0.000  0.010  0.000  0.003  0.000  0.000  0.000  0.000  0.000  0.014
   19  0.000  0.010  0.000  0.003  0.000  0.000  0.000  0.000  0.000  0.014
   20  0.000  0.010  0.000  0.003  0.000  0.000  0.000  0.000  0.000  0.014
   21  0.000  0.010  0.000  0.003  0.000  0.000  0.000  0.000  0.000  0.014
   22  0.000  0.010  0.000  0.003  0.000  0.000  0.000  0.000  0.000  0.014
   23  0.000  0.010  0.000  0.003  0.000  0.000  0.000  0.000  0.000  0.014
   24  0.000  0.010  0.000  0.003  0.000  0.000  0.000  0.000  0.000  0.014
   25  0.000  0.010  0.000  0.003  0.000  0.000  0.000  0.000  0.000  0.014
   26  0.000  0.010  0.000  0.003  0.000  0.000  0.000  0.000  0.000  0.014
   27  0.000  0.010  0.000  0.003  0.000  0.000  0.000  0.000  0.000  0.014
   28  0.000  0.010  0.000  0.003  0.000  0.000  0.000  0.000  0.000  0.014
   29  0.000  0.010  0.000  0.003  0.000  0.000  0.000  0.000  0.000  0.014
   30  0.000  0.010  0.000  0.003  0.000  0.000  0.000  0.000  0.000  0.014
   31  0.000  0.010  0.000  0.003  0.000  0.000  0.000  0.000  0.000  0.014
   32  0.000  0.010  0.000  0.003  0.000  0.000  0.000  0.000  0.000  0.014
   33  0.000  0.010  0.000  0.003  0.000  0.000  0.000  0.000  0.000  0.014
   34  0.000  0.010  0.000  0.003  0.000  0.000  0.000  0.000  0.000  0.014
   35  0.000  0.010  0.000  0.003  0.000  0.000  0.000  0.000  0.000  0.014
   36  0.000  0.010  0.000  0.003  0.000  0.000  0.000  0.000  0.000  0.014
tot    0.000  0.246  0.000  0.082  0.000  0.374  0.000  0.125  0.001  0.827
 
band    70 # energy   -3.26127203 # occ.  1.00000000
 
ion      s     py     pz     px    dxy    dyz    dz2    dxz  x2-y2    tot
    1  0.000  0.000  0.000  0.000  0.039  0.000  0.000  0.000  0.013  0.052
    2  0.000  0.000  0.000  0.000  0.039  0.000  0.000  0.000  0.013  0.052
    3  0.000  0.000  0.000  0.000  0.039  0.000  0.000  0.000  0.013  0.052
    4  0.000  0.000  0.000  0.000  0.039  0.000  0.000  0.000  0.013  0.052
    5  0.000  0.000  0.000  0.000  0.039  0.000  0.000  0.000  0.013  0.052
    6  0.000  0.000  0.000  0.000  0.039  0.000  0.000  0.000  0.013  0.052
    7  0.000  0.000  0.000  0.000  0.039  0.000  0.000  0.000  0.013  0.052
    8  0.000  0.000  0.000  0.000  0.039  0.000  0.000  0.000  0.013  0.052
    9  0.000  0.000  0.000  0.000  0.039  0.000  0.000  0.000  0.013  0.052
   10  0.000  0.000  0.000  0.000  0.039  0.000  0.000  0.000  0.013  0.052
   11  0.000  0.000  0.000  0.000  0.039  0.000  0.000  0.000  0.013  0.052
   12  0.000  0.000  0.000  0.000  0.039  0.000  0.000  0.000  0.013  0.052
   13  0.000  0.002  0.000  0.007  0.000  0.000  0.000  0.000  0.000  0.009
   14  0.000  0.002  0.000  0.007  0.000  0.000  0.000  0.000  0.000  0.009
   15  0.000  0.002  0.000  0.007  0.000  0.000  0.000  0.000  0.000  0.009
   16  0.000  0.002  0.000  0.007  0.000  0.000  0.000  0.000  0.000  0.009
   17  0.000  0.002  0.000  0.007  0.000  0.000  0.000  0.000  0.000  0.009
   18  0.000  0.002  0.000  0.007  0.000  0.000  0.000  0.000  0.000  0.009
   19  0.000  0.002  0.000  0.007  0.000  0.000  0.000  0.000  0.000  0.009
   20  0.000  0.002  0.000  0.007  0.000  0.000  0.000  0.000  0.000  0.009
   21  0.000  0.002  0.000  0.007  0.000  0.000  0.000  0.000  0.000  0.009
   22  0.000  0.002  0.000  0.007  0.000  0.000  0.000  0.000  0.000  0.009
   23  0.000  0.002  0.000  0.007  0.000  0.000  0.000  0.000  0.000  0.009
   24  0.000  0.002  0.000  0.007  0.000  0.000  0.000  0.000  0.000  0.009
   25  0.000  0.002  0.000  0.007  0.000  0.000  0.000  0.000  0.000  0.009
   26  0.000  0.002  0.000  0.007  0.000  0.000  0.000  0.000  0.000  0.009
   27  0.000  0.002  0.000  0.007  0.000  0.000  0.000  0.000  0.000  0.009
   28  0.000  0.002  0.000  0.007  0.000  0.000  0.000  0.000  0.000  0.009
   29  0.000  0.002  0.000  0.007  0.000  0.000  0.000  0.000  0.000  0.009
   30  0.000  0.002  0.000  0.007  0.000  0.000  0.000  0.000  0.000  0.009
   31  0.000  0.002  0.000  0.007  0.000  0.000  0.000  0.000  0.000  0.009
   32  0.000  0.002  0.000  0.007  0.000  0.000  0.000  0.000  0.000  0.009
   33  0.000  0.002  0.000  0.007  0.000  0.000  0.000  0.000  0.000  0.009
   34  0.000  0.002  0.000  0.007  0.000  0.000  0.000  0.000  0.000  0.009
   35  0.000  0.002  0.000  0.007  0.000  0.000  0.000  0.000  0.000  0.009
   36  0.000  0.002  0.000  0.007  0.000  0.000  0.000  0.000  0.000  0.009
tot    0.000  0.054  0.000  0.163  0.463  0.003  0.000  0.010  0.155  0.848
 
band    71 # energy   -3.26007630 # occ.  1.00000000
 
ion      s     py     pz     px    dxy    dyz    dz2    dxz  x2-y2    tot
    1  0.000  0.000  0.000  0.000  0.013  0.000  0.000  0.000  0.039  0.052
    2  0.000  0.000  0.000  0.000  0.013  0.000  0.000  0.000  0.039  0.052
    3  0.000  0.000  0.000  0.000  0.013  0.000  0.000  0.000  0.039  0.052
    4  0.000  0.000  0.000  0.000  0.013  0.000  0.000  0.000  0.039  0.052
    5  0.000  0.000  0.000  0.000  0.013  0.000  0.000  0.000  0.039  0.052
    6  0.000  0.000  0.000  0.000  0.013  0.000  0.000  0.000  0.039  0.052
    7  0.000  0.000  0.000  0.000  0.013  0.000  0.000  0.000  0.039  0.052
    8  0.000  0.000  0.000  0.000  0.013  0.000  0.000  0.000  0.039  0.052
    9  0.000  0.000  0.000  0.000  0.013  0.000  0.000  0.000  0.039  0.052
   10  0.000  0.000  0.000  0.000  0.013  0.000  0.000  0.000  0.039  0.052
   11  0.000  0.000  0.000  0.000  0.013  0.000  0.000  0.000  0.039  0.052
   12  0.000  0.000  0.000  0.000  0.013  0.000  0.000  0.000  0.039  0.052
   13  0.000  0.007  0.000  0.002  0.000  0.000  0.000  0.000  0.000  0.009
   14  0.000  0.007  0.000  0.002  0.000  0.000  0.000  0.000  0.000  0.009
   15  0.000  0.007  0.000  0.002  0.000  0.000  0.000  0.000  0.000  0.009
   16  0.000  0.007  0.000  0.002  0.000  0.000  0.000  0.000  0.000  0.009
   17  0.000  0.007  0.000  0.002  0.000  0.000  0.000  0.000  0.000  0.009
   18  0.000  0.007  0.000  0.002  0.000  0.000  0.000  0.000  0.000  0.009
   19  0.000  0.007  0.000  0.002  0.000  0.000  0.000  0.000  0.000  0.009
   20  0.000  0.007  0.000  0.002  0.000  0.000  0.000  0.000  0.000  0.009
   21  0.000  0.007  0.000  0.002  0.000  0.000  0.000  0.000  0.000  0.009
   22  0.000  0.007  0.000  0.002  0.000  0.000  0.000  0.000  0.000  0.009
   23  0.000  0.007  0.000  0.002  0.000  0.000  0.000  0.000  0.000  0.009
   24  0.000  0.007  0.000  0.002  0.000  0.000  0.000  0.000  0.000  0.009
   25  0.000  0.007  0.000  0.002  0.000  0.000  0.000  0.000  0.000  0.009
   26  0.000  0.007  0.000  0.002  0.000  0.000  0.000  0.000  0.000  0.009
   27  0.000  0.007  0.000  0.002  0.000  0.000  0.000  0.000  0.000  0.009
   28  0.000  0.007  0.000  0.002  0.000  0.000  0.000  0.000  0.000  0.009
   29  0.000  0.007  0.000  0.002  0.000  0.000  0.000  0.000  0.000  0.009
   30  0.000  0.007  0.000  0.002  0.000  0.000  0.000  0.000  0.000  0.009
   31  0.000  0.007  0.000  0.002  0.000  0.000  0.000  0.000  0.000  0.009
   32  0.000  0.007  0.000  0.002  0.000  0.000  0.000  0.000  0.000  0.009
   33  0.000  0.007  0.000  0.002  0.000  0.000  0.000  0.000  0.000  0.009
   34  0.000  0.007  0.000  0.002  0.000  0.000  0.000  0.000  0.000  0.009
   35  0.000  0.007  0.000  0.002  0.000  0.000  0.000  0.000  0.000  0.009
   36  0.000  0.007  0.000  0.002  0.000  0.000  0.000  0.000  0.000  0.009
tot    0.000  0.163  0.000  0.054  0.155  0.010  0.000  0.003  0.464  0.849
 
band    72 # energy   -3.23370703 # occ.  1.00000000
 
ion      s     py     pz     px    dxy    dyz    dz2    dxz  x2-y2    tot
    1  0.000  0.000  0.000  0.000  0.000  0.065  0.000  0.022  0.000  0.087
    2  0.000  0.000  0.000  0.000  0.000  0.000  0.000  0.000  0.000  0.000
    3  0.000  0.000  0.000  0.000  0.000  0.065  0.000  0.022  0.000  0.087
    4  0.000  0.000  0.000  0.000  0.000  0.065  0.000  0.022  0.000  0.087
    5  0.000  0.000  0.000  0.000  0.000  0.000  0.000  0.000  0.000  0.000
    6  0.000  0.000  0.000  0.000  0.000  0.000  0.000  0.000  0.000  0.000
    7  0.000  0.000  0.000  0.000  0.000  0.000  0.000  0.000  0.000  0.000
    8  0.000  0.000  0.000  0.000  0.000  0.000  0.000  0.000  0.000  0.000
    9  0.000  0.000  0.000  0.000  0.000  0.000  0.000  0.000  0.000  0.000
   10  0.000  0.000  0.000  0.000  0.000  0.065  0.000  0.022  0.000  0.087
   11  0.000  0.000  0.000  0.000  0.000  0.065  0.000  0.022  0.000  0.087
   12  0.000  0.000  0.000  0.000  0.000  0.065  0.000  0.022  0.000  0.087
   13  0.000  0.002  0.000  0.001  0.000  0.000  0.000  0.000  0.000  0.003
   14  0.000  0.002  0.000  0.001  0.000  0.000  0.000  0.000  0.000  0.003
   15  0.000  0.002  0.000  0.001  0.000  0.000  0.000  0.000  0.000  0.003
   16  0.000  0.017  0.000  0.006  0.000  0.000  0.000  0.000  0.000  0.024
   17  0.000  0.017  0.000  0.006  0.000  0.000  0.000  0.000  0.000  0.024
   18  0.000  0.002  0.000  0.001  0.000  0.000  0.000  0.000  0.000  0.003
   19  0.000  0.002  0.000  0.001  0.000  0.000  0.000  0.000  0.000  0.003
   20  0.000  0.002  0.000  0.001  0.000  0.000  0.000  0.000  0.000  0.003
   21  0.000  0.002  0.000  0.001  0.000  0.000  0.000  0.000  0.000  0.003
   22  0.000  0.002  0.000  0.001  0.000  0.000  0.000  0.000  0.000  0.003
   23  0.000  0.017  0.000  0.006  0.000  0.000  0.000  0.000  0.000  0.024
   24  0.000  0.017  0.000  0.006  0.000  0.000  0.000  0.000  0.000  0.024
   25  0.000  0.017  0.000  0.006  0.000  0.000  0.000  0.000  0.000  0.024
   26  0.000  0.017  0.000  0.006  0.000  0.000  0.000  0.000  0.000  0.024
   27  0.000  0.002  0.000  0.001  0.000  0.000  0.000  0.000  0.000  0.003
   28  0.000  0.002  0.000  0.001  0.000  0.000  0.000  0.000  0.000  0.003
   29  0.000  0.017  0.000  0.006  0.000  0.000  0.000  0.000  0.000  0.024
   30  0.000  0.002  0.000  0.001  0.000  0.000  0.000  0.000  0.000  0.003
   31  0.000  0.002  0.000  0.001  0.000  0.000  0.000  0.000  0.000  0.003
   32  0.000  0.017  0.000  0.006  0.000  0.000  0.000  0.000  0.000  0.024
   33  0.000  0.017  0.000  0.006  0.000  0.000  0.000  0.000  0.000  0.024
   34  0.000  0.017  0.000  0.006  0.000  0.000  0.000  0.000  0.000  0.024
   35  0.000  0.017  0.000  0.006  0.000  0.000  0.000  0.000  0.000  0.024
   36  0.000  0.017  0.000  0.006  0.000  0.000  0.000  0.000  0.000  0.024
tot    0.000  0.232  0.000  0.077  0.002  0.398  0.000  0.133  0.005  0.846
 
band    73 # energy   -3.23246073 # occ.  1.00000000
 
ion      s     py     pz     px    dxy    dyz    dz2    dxz  x2-y2    tot
    1  0.000  0.000  0.000  0.000  0.000  0.000  0.000  0.000  0.000  0.000
    2  0.000  0.000  0.000  0.000  0.000  0.065  0.000  0.022  0.000  0.087
    3  0.000  0.000  0.000  0.000  0.000  0.000  0.000  0.000  0.000  0.000
    4  0.000  0.000  0.000  0.000  0.000  0.000  0.000  0.000  0.000  0.000
    5  0.000  0.000  0.000  0.000  0.000  0.065  0.000  0.022  0.000  0.087
    6  0.000  0.000  0.000  0.000  0.000  0.065  0.000  0.022  0.000  0.087
    7  0.000  0.000  0.000  0.000  0.000  0.065  0.000  0.022  0.000  0.087
    8  0.000  0.000  0.000  0.000  0.000  0.065  0.000  0.022  0.000  0.087
    9  0.000  0.000  0.000  0.000  0.000  0.065  0.000  0.022  0.000  0.087
   10  0.000  0.000  0.000  0.000  0.000  0.000  0.000  0.000  0.000  0.000
   11  0.000  0.000  0.000  0.000  0.000  0.000  0.000  0.000  0.000  0.000
   12  0.000  0.000  0.000  0.000  0.000  0.000  0.000  0.000  0.000  0.000
   13  0.000  0.017  0.000  0.006  0.000  0.000  0.000  0.000  0.000  0.024
   14  0.000  0.017  0.000  0.006  0.000  0.000  0.000  0.000  0.000  0.024
   15  0.000  0.017  0.000  0.006  0.000  0.000  0.000  0.000  0.000  0.024
   16  0.000  0.002  0.000  0.001  0.000  0.000  0.000  0.000  0.000  0.003
   17  0.000  0.002  0.000  0.001  0.000  0.000  0.000  0.000  0.000  0.003
   18  0.000  0.017  0.000  0.006  0.000  0.000  0.000  0.000  0.000  0.024
   19  0.000  0.017  0.000  0.006  0.000  0.000  0.000  0.000  0.000  0.024
   20  0.000  0.017  0.000  0.006  0.000  0.000  0.000  0.000  0.000  0.024
   21  0.000  0.017  0.000  0.006  0.000  0.000  0.000  0.000  0.000  0.024
   22  0.000  0.017  0.000  0.006  0.000  0.000  0.000  0.000  0.000  0.024
   23  0.000  0.002  0.000  0.001  0.000  0.000  0.000  0.000  0.000  0.003
   24  0.000  0.002  0.000  0.001  0.000  0.000  0.000  0.000  0.000  0.003
   25  0.000  0.002  0.000  0.001  0.000  0.000  0.000  0.000  0.000  0.003
   26  0.000  0.002  0.000  0.001  0.000  0.000  0.000  0.000  0.000  0.003
   27  0.000  0.017  0.000  0.006  0.000  0.000  0.000  0.000  0.000  0.024
   28  0.000  0.017  0.000  0.006  0.000  0.000  0.000  0.000  0.000  0.024
   29  0.000  0.002  0.000  0.001  0.000  0.000  0.000  0.000  0.000  0.003
   30  0.000  0.017  0.000  0.006  0.000  0.000  0.000  0.000  0.000  0.024
   31  0.000  0.017  0.000  0.006  0.000  0.000  0.000  0.000  0.000  0.024
   32  0.000  0.002  0.000  0.001  0.000  0.000  0.000  0.000  0.000  0.003
   33  0.000  0.002  0.000  0.001  0.000  0.000  0.000  0.000  0.000  0.003
   34  0.000  0.002  0.000  0.001  0.000  0.000  0.000  0.000  0.000  0.003
   35  0.000  0.002  0.000  0.001  0.000  0.000  0.000  0.000  0.000  0.003
   36  0.000  0.002  0.000  0.001  0.000  0.000  0.000  0.000  0.000  0.003
tot    0.000  0.232  0.000  0.077  0.002  0.398  0.000  0.133  0.005  0.846
 
band    74 # energy   -3.22955830 # occ.  1.00000000
 
ion      s     py     pz     px    dxy    dyz    dz2    dxz  x2-y2    tot
    1  0.000  0.000  0.000  0.000  0.000  0.000  0.000  0.028  0.000  0.028
    2  0.000  0.000  0.000  0.000  0.000  0.021  0.000  0.007  0.000  0.028
    3  0.000  0.000  0.000  0.000  0.000  0.021  0.000  0.007  0.000  0.028
    4  0.000  0.000  0.000  0.000  0.000  0.021  0.000  0.007  0.000  0.029
    5  0.000  0.000  0.000  0.000  0.000  0.021  0.000  0.007  0.000  0.028
    6  0.000  0.000  0.000  0.000  0.000  0.000  0.000  0.028  0.000  0.028
    7  0.000  0.000  0.000  0.000  0.000  0.021  0.000  0.007  0.000  0.029
    8  0.000  0.000  0.000  0.000  0.000  0.000  0.000  0.028  0.000  0.028
    9  0.000  0.000  0.000  0.000  0.000  0.021  0.000  0.007  0.000  0.029
   10  0.000  0.000  0.000  0.000  0.000  0.021  0.000  0.007  0.000  0.028
   11  0.000  0.000  0.000  0.000  0.000  0.021  0.000  0.007  0.000  0.029
   12  0.000  0.000  0.000  0.000  0.000  0.000  0.000  0.028  0.000  0.028
   13  0.000  0.000  0.000  0.000  0.000  0.000  0.000  0.000  0.000  0.000
   14  0.002  0.000  0.025  0.000  0.000  0.000  0.000  0.000  0.000  0.027
   15  0.002  0.000  0.025  0.000  0.000  0.000  0.000  0.000  0.000  0.027
   16  0.002  0.000  0.025  0.000  0.000  0.000  0.000  0.000  0.000  0.027
   17  0.002  0.000  0.025  0.000  0.000  0.000  0.000  0.000  0.000  0.027
   18  0.002  0.000  0.025  0.000  0.000  0.000  0.000  0.000  0.000  0.027
   19  0.002  0.000  0.025  0.000  0.000  0.000  0.000  0.000  0.000  0.027
   20  0.000  0.000  0.000  0.000  0.000  0.000  0.000  0.000  0.000  0.000
   21  0.002  0.000  0.025  0.000  0.000  0.000  0.000  0.000  0.000  0.027
   22  0.002  0.000  0.025  0.000  0.000  0.000  0.000  0.000  0.000  0.027
   23  0.000  0.000  0.000  0.000  0.000  0.000  0.000  0.000  0.000  0.000
   24  0.000  0.000  0.000  0.000  0.000  0.000  0.000  0.000  0.000  0.000
   25  0.002  0.000  0.025  0.000  0.000  0.000  0.000  0.000  0.000  0.027
   26  0.002  0.000  0.025  0.000  0.000  0.000  0.000  0.000  0.000  0.027
   27  0.000  0.000  0.000  0.000  0.000  0.000  0.000  0.000  0.000  0.000
   28  0.000  0.000  0.000  0.000  0.000  0.000  0.000  0.000  0.000  0.000
   29  0.002  0.000  0.025  0.000  0.000  0.000  0.000  0.000  0.000  0.027
   30  0.002  0.000  0.025  0.000  0.000  0.000  0.000  0.000  0.000  0.027
   31  0.002  0.000  0.025  0.000  0.000  0.000  0.000  0.000  0.000  0.027
   32  0.002  0.000  0.025  0.000  0.000  0.000  0.000  0.000  0.000  0.027
   33  0.002  0.000  0.025  0.000  0.000  0.000  0.000  0.000  0.000  0.027
   34  0.002  0.000  0.025  0.000  0.000  0.000  0.000  0.000  0.000  0.027
   35  0.000  0.000  0.000  0.000  0.000  0.000  0.000  0.000  0.000  0.000
   36  0.000  0.000  0.000  0.000  0.000  0.000  0.000  0.000  0.000  0.000
tot    0.034  0.000  0.398  0.000  0.000  0.171  0.000  0.170  0.000  0.772
 
band    75 # energy   -3.22938820 # occ.  1.00000000
 
ion      s     py     pz     px    dxy    dyz    dz2    dxz  x2-y2    tot
    1  0.000  0.000  0.000  0.000  0.000  0.028  0.000  0.000  0.000  0.028
    2  0.000  0.000  0.000  0.000  0.000  0.007  0.000  0.021  0.000  0.028
    3  0.000  0.000  0.000  0.000  0.000  0.007  0.000  0.021  0.000  0.028
    4  0.000  0.000  0.000  0.000  0.000  0.007  0.000  0.021  0.000  0.028
    5  0.000  0.000  0.000  0.000  0.000  0.007  0.000  0.021  0.000  0.028
    6  0.000  0.000  0.000  0.000  0.000  0.028  0.000  0.000  0.000  0.028
    7  0.000  0.000  0.000  0.000  0.000  0.007  0.000  0.021  0.000  0.028
    8  0.000  0.000  0.000  0.000  0.000  0.028  0.000  0.000  0.000  0.028
    9  0.000  0.000  0.000  0.000  0.000  0.007  0.000  0.021  0.000  0.028
   10  0.000  0.000  0.000  0.000  0.000  0.007  0.000  0.021  0.000  0.028
   11  0.000  0.000  0.000  0.000  0.000  0.007  0.000  0.021  0.000  0.028
   12  0.000  0.000  0.000  0.000  0.000  0.028  0.000  0.000  0.000  0.028
   13  0.003  0.000  0.033  0.000  0.000  0.000  0.000  0.000  0.000  0.036
   14  0.001  0.000  0.008  0.000  0.000  0.000  0.000  0.000  0.000  0.009
   15  0.001  0.000  0.008  0.000  0.000  0.000  0.000  0.000  0.000  0.009
   16  0.001  0.000  0.008  0.000  0.000  0.000  0.000  0.000  0.000  0.009
   17  0.001  0.000  0.008  0.000  0.000  0.000  0.000  0.000  0.000  0.009
   18  0.001  0.000  0.008  0.000  0.000  0.000  0.000  0.000  0.000  0.009
   19  0.001  0.000  0.008  0.000  0.000  0.000  0.000  0.000  0.000  0.009
   20  0.003  0.000  0.033  0.000  0.000  0.000  0.000  0.000  0.000  0.036
   21  0.001  0.000  0.008  0.000  0.000  0.000  0.000  0.000  0.000  0.009
   22  0.001  0.000  0.008  0.000  0.000  0.000  0.000  0.000  0.000  0.009
   23  0.003  0.000  0.033  0.000  0.000  0.000  0.000  0.000  0.000  0.036
   24  0.003  0.000  0.033  0.000  0.000  0.000  0.000  0.000  0.000  0.036
   25  0.001  0.000  0.008  0.000  0.000  0.000  0.000  0.000  0.000  0.009
   26  0.001  0.000  0.008  0.000  0.000  0.000  0.000  0.000  0.000  0.009
   27  0.003  0.000  0.033  0.000  0.000  0.000  0.000  0.000  0.000  0.036
   28  0.003  0.000  0.033  0.000  0.000  0.000  0.000  0.000  0.000  0.036
   29  0.001  0.000  0.008  0.000  0.000  0.000  0.000  0.000  0.000  0.009
   30  0.001  0.000  0.008  0.000  0.000  0.000  0.000  0.000  0.000  0.009
   31  0.001  0.000  0.008  0.000  0.000  0.000  0.000  0.000  0.000  0.009
   32  0.001  0.000  0.008  0.000  0.000  0.000  0.000  0.000  0.000  0.009
   33  0.001  0.000  0.008  0.000  0.000  0.000  0.000  0.000  0.000  0.009
   34  0.001  0.000  0.008  0.000  0.000  0.000  0.000  0.000  0.000  0.009
   35  0.003  0.000  0.033  0.000  0.000  0.000  0.000  0.000  0.000  0.036
   36  0.003  0.000  0.033  0.000  0.000  0.000  0.000  0.000  0.000  0.036
tot    0.034  0.000  0.398  0.000  0.000  0.171  0.000  0.170  0.000  0.772
 
band    76 # energy   -2.99055510 # occ.  1.00000000
 
ion      s     py     pz     px    dxy    dyz    dz2    dxz  x2-y2    tot
    1  0.000  0.000  0.002  0.000  0.000  0.005  0.000  0.014  0.000  0.020
    2  0.000  0.000  0.002  0.000  0.000  0.005  0.000  0.014  0.000  0.020
    3  0.000  0.000  0.002  0.000  0.000  0.005  0.000  0.014  0.000  0.020
    4  0.000  0.000  0.002  0.000  0.000  0.005  0.000  0.014  0.000  0.020
    5  0.000  0.000  0.002  0.000  0.000  0.005  0.000  0.014  0.000  0.020
    6  0.000  0.000  0.002  0.000  0.000  0.005  0.000  0.014  0.000  0.020
    7  0.000  0.000  0.002  0.000  0.000  0.005  0.000  0.014  0.000  0.020
    8  0.000  0.000  0.002  0.000  0.000  0.005  0.000  0.014  0.000  0.020
    9  0.000  0.000  0.002  0.000  0.000  0.005  0.000  0.014  0.000  0.020
   10  0.000  0.000  0.002  0.000  0.000  0.005  0.000  0.014  0.000  0.020
   11  0.000  0.000  0.002  0.000  0.000  0.005  0.000  0.014  0.000  0.020
   12  0.000  0.000  0.002  0.000  0.000  0.005  0.000  0.014  0.000  0.020
   13  0.001  0.001  0.016  0.002  0.000  0.000  0.000  0.000  0.000  0.019
   14  0.001  0.001  0.016  0.002  0.000  0.000  0.000  0.000  0.000  0.019
   15  0.001  0.001  0.016  0.002  0.000  0.000  0.000  0.000  0.000  0.019
   16  0.001  0.001  0.016  0.002  0.000  0.000  0.000  0.000  0.000  0.019
   17  0.001  0.001  0.016  0.002  0.000  0.000  0.000  0.000  0.000  0.019
   18  0.001  0.001  0.016  0.002  0.000  0.000  0.000  0.000  0.000  0.019
   19  0.001  0.001  0.016  0.002  0.000  0.000  0.000  0.000  0.000  0.019
   20  0.001  0.001  0.016  0.002  0.000  0.000  0.000  0.000  0.000  0.019
   21  0.001  0.001  0.016  0.002  0.000  0.000  0.000  0.000  0.000  0.019
   22  0.001  0.001  0.016  0.002  0.000  0.000  0.000  0.000  0.000  0.019
   23  0.001  0.001  0.016  0.002  0.000  0.000  0.000  0.000  0.000  0.019
   24  0.001  0.001  0.016  0.002  0.000  0.000  0.000  0.000  0.000  0.019
   25  0.001  0.001  0.016  0.002  0.000  0.000  0.000  0.000  0.000  0.019
   26  0.001  0.001  0.016  0.002  0.000  0.000  0.000  0.000  0.000  0.019
   27  0.001  0.001  0.016  0.002  0.000  0.000  0.000  0.000  0.000  0.019
   28  0.001  0.001  0.016  0.002  0.000  0.000  0.000  0.000  0.000  0.019
   29  0.001  0.001  0.016  0.002  0.000  0.000  0.000  0.000  0.000  0.019
   30  0.001  0.001  0.016  0.002  0.000  0.000  0.000  0.000  0.000  0.019
   31  0.001  0.001  0.016  0.002  0.000  0.000  0.000  0.000  0.000  0.019
   32  0.001  0.001  0.016  0.002  0.000  0.000  0.000  0.000  0.000  0.019
   33  0.001  0.001  0.016  0.002  0.000  0.000  0.000  0.000  0.000  0.019
   34  0.001  0.001  0.016  0.002  0.000  0.000  0.000  0.000  0.000  0.019
   35  0.001  0.001  0.016  0.002  0.000  0.000  0.000  0.000  0.000  0.019
   36  0.001  0.001  0.016  0.002  0.000  0.000  0.000  0.000  0.000  0.019
tot    0.019  0.014  0.408  0.042  0.000  0.055  0.000  0.166  0.000  0.705
 
band    77 # energy   -2.93949355 # occ.  1.00000000
 
ion      s     py     pz     px    dxy    dyz    dz2    dxz  x2-y2    tot
    1  0.000  0.000  0.005  0.000  0.000  0.000  0.000  0.000  0.000  0.005
    2  0.000  0.000  0.005  0.000  0.000  0.000  0.000  0.000  0.000  0.005
    3  0.000  0.000  0.005  0.000  0.000  0.000  0.000  0.000  0.000  0.005
    4  0.000  0.000  0.005  0.000  0.000  0.000  0.000  0.000  0.000  0.005
    5  0.000  0.000  0.005  0.000  0.000  0.000  0.000  0.000  0.000  0.005
    6  0.000  0.000  0.005  0.000  0.000  0.000  0.000  0.000  0.000  0.005
    7  0.000  0.000  0.005  0.000  0.000  0.000  0.000  0.000  0.000  0.005
    8  0.000  0.000  0.005  0.000  0.000  0.000  0.000  0.000  0.000  0.005
    9  0.000  0.000  0.005  0.000  0.000  0.000  0.000  0.000  0.000  0.005
   10  0.000  0.000  0.005  0.000  0.000  0.000  0.000  0.000  0.000  0.005
   11  0.000  0.000  0.005  0.000  0.000  0.000  0.000  0.000  0.000  0.005
   12  0.000  0.000  0.005  0.000  0.000  0.000  0.000  0.000  0.000  0.005
   13  0.000  0.000  0.020  0.000  0.000  0.000  0.000  0.000  0.000  0.020
   14  0.000  0.000  0.020  0.000  0.000  0.000  0.000  0.000  0.000  0.020
   15  0.000  0.000  0.020  0.000  0.000  0.000  0.000  0.000  0.000  0.020
   16  0.000  0.000  0.020  0.000  0.000  0.000  0.000  0.000  0.000  0.020
   17  0.000  0.000  0.020  0.000  0.000  0.000  0.000  0.000  0.000  0.020
   18  0.000  0.000  0.020  0.000  0.000  0.000  0.000  0.000  0.000  0.020
   19  0.000  0.000  0.020  0.000  0.000  0.000  0.000  0.000  0.000  0.020
   20  0.000  0.000  0.020  0.000  0.000  0.000  0.000  0.000  0.000  0.020
   21  0.000  0.000  0.020  0.000  0.000  0.000  0.000  0.000  0.000  0.020
   22  0.000  0.000  0.020  0.000  0.000  0.000  0.000  0.000  0.000  0.020
   23  0.000  0.000  0.020  0.000  0.000  0.000  0.000  0.000  0.000  0.020
   24  0.000  0.000  0.020  0.000  0.000  0.000  0.000  0.000  0.000  0.020
   25  0.000  0.000  0.020  0.000  0.000  0.000  0.000  0.000  0.000  0.020
   26  0.000  0.000  0.020  0.000  0.000  0.000  0.000  0.000  0.000  0.020
   27  0.000  0.000  0.020  0.000  0.000  0.000  0.000  0.000  0.000  0.020
   28  0.000  0.000  0.020  0.000  0.000  0.000  0.000  0.000  0.000  0.020
   29  0.000  0.000  0.020  0.000  0.000  0.000  0.000  0.000  0.000  0.020
   30  0.000  0.000  0.020  0.000  0.000  0.000  0.000  0.000  0.000  0.020
   31  0.000  0.000  0.020  0.000  0.000  0.000  0.000  0.000  0.000  0.020
   32  0.000  0.000  0.020  0.000  0.000  0.000  0.000  0.000  0.000  0.020
   33  0.000  0.000  0.020  0.000  0.000  0.000  0.000  0.000  0.000  0.020
   34  0.000  0.000  0.020  0.000  0.000  0.000  0.000  0.000  0.000  0.020
   35  0.000  0.000  0.020  0.000  0.000  0.000  0.000  0.000  0.000  0.020
   36  0.000  0.000  0.020  0.000  0.000  0.000  0.000  0.000  0.000  0.020
tot    0.001  0.000  0.546  0.000  0.000  0.000  0.000  0.000  0.000  0.546
 
band    78 # energy   -2.84423252 # occ.  1.00000000
 
ion      s     py     pz     px    dxy    dyz    dz2    dxz  x2-y2    tot
    1  0.001  0.000  0.000  0.003  0.008  0.000  0.017  0.000  0.011  0.040
    2  0.001  0.003  0.000  0.000  0.018  0.000  0.017  0.000  0.001  0.040
    3  0.001  0.003  0.000  0.000  0.018  0.000  0.017  0.000  0.001  0.040
    4  0.000  0.005  0.000  0.002  0.002  0.000  0.000  0.000  0.006  0.015
    5  0.001  0.003  0.000  0.000  0.018  0.000  0.017  0.000  0.001  0.040
    6  0.001  0.000  0.000  0.003  0.008  0.000  0.017  0.000  0.011  0.040
    7  0.000  0.005  0.000  0.002  0.002  0.000  0.000  0.000  0.006  0.015
    8  0.001  0.000  0.000  0.003  0.008  0.000  0.017  0.000  0.011  0.040
    9  0.000  0.005  0.000  0.002  0.002  0.000  0.000  0.000  0.006  0.015
   10  0.001  0.003  0.000  0.000  0.018  0.000  0.017  0.000  0.001  0.040
   11  0.000  0.005  0.000  0.002  0.002  0.000  0.000  0.000  0.006  0.015
   12  0.001  0.000  0.000  0.003  0.008  0.000  0.017  0.000  0.011  0.040
   13  0.000  0.000  0.000  0.000  0.000  0.000  0.000  0.000  0.000  0.001
   14  0.000  0.004  0.000  0.016  0.000  0.000  0.000  0.000  0.000  0.021
   15  0.000  0.004  0.000  0.016  0.000  0.000  0.000  0.000  0.000  0.021
   16  0.000  0.006  0.000  0.014  0.000  0.000  0.000  0.000  0.000  0.021
   17  0.000  0.006  0.000  0.014  0.000  0.000  0.000  0.000  0.000  0.021
   18  0.000  0.006  0.000  0.014  0.000  0.000  0.000  0.000  0.000  0.021
   19  0.000  0.006  0.000  0.014  0.000  0.000  0.000  0.000  0.000  0.021
   20  0.000  0.000  0.000  0.000  0.000  0.000  0.000  0.000  0.000  0.001
   21  0.000  0.004  0.000  0.016  0.000  0.000  0.000  0.000  0.000  0.021
   22  0.000  0.004  0.000  0.016  0.000  0.000  0.000  0.000  0.000  0.021
   23  0.000  0.000  0.000  0.000  0.000  0.000  0.000  0.000  0.000  0.001
   24  0.000  0.000  0.000  0.000  0.000  0.000  0.000  0.000  0.000  0.001
   25  0.000  0.004  0.000  0.016  0.000  0.000  0.000  0.000  0.000  0.021
   26  0.000  0.004  0.000  0.016  0.000  0.000  0.000  0.000  0.000  0.021
   27  0.000  0.000  0.000  0.000  0.000  0.000  0.000  0.000  0.000  0.001
   28  0.000  0.000  0.000  0.000  0.000  0.000  0.000  0.000  0.000  0.001
   29  0.000  0.006  0.000  0.014  0.000  0.000  0.000  0.000  0.000  0.021
   30  0.000  0.006  0.000  0.014  0.000  0.000  0.000  0.000  0.000  0.021
   31  0.000  0.006  0.000  0.014  0.000  0.000  0.000  0.000  0.000  0.021
   32  0.000  0.006  0.000  0.014  0.000  0.000  0.000  0.000  0.000  0.021
   33  0.000  0.004  0.000  0.016  0.000  0.000  0.000  0.000  0.000  0.021
   34  0.000  0.004  0.000  0.016  0.000  0.000  0.000  0.000  0.000  0.021
   35  0.000  0.000  0.000  0.000  0.000  0.000  0.000  0.000  0.000  0.001
   36  0.000  0.000  0.000  0.000  0.000  0.000  0.000  0.000  0.000  0.001
tot    0.010  0.117  0.001  0.267  0.114  0.002  0.133  0.004  0.077  0.724
 
band    79 # energy   -2.84399716 # occ.  1.00000000
 
ion      s     py     pz     px    dxy    dyz    dz2    dxz  x2-y2    tot
    1  0.000  0.005  0.000  0.000  0.011  0.000  0.006  0.000  0.001  0.023
    2  0.000  0.002  0.000  0.003  0.001  0.000  0.006  0.000  0.011  0.023
    3  0.000  0.002  0.000  0.003  0.001  0.000  0.006  0.000  0.011  0.023
    4  0.001  0.001  0.000  0.002  0.017  0.000  0.022  0.000  0.006  0.048
    5  0.000  0.002  0.000  0.003  0.001  0.000  0.006  0.000  0.011  0.023
    6  0.000  0.005  0.000  0.000  0.011  0.000  0.006  0.000  0.001  0.023
    7  0.001  0.001  0.000  0.002  0.017  0.000  0.022  0.000  0.006  0.048
    8  0.000  0.005  0.000  0.000  0.011  0.000  0.006  0.000  0.001  0.023
    9  0.001  0.001  0.000  0.002  0.017  0.000  0.022  0.000  0.006  0.048
   10  0.000  0.002  0.000  0.003  0.001  0.000  0.006  0.000  0.011  0.023
   11  0.001  0.001  0.000  0.002  0.017  0.000  0.022  0.000  0.006  0.048
   12  0.000  0.005  0.000  0.000  0.011  0.000  0.006  0.000  0.001  0.023
   13  0.000  0.007  0.000  0.020  0.000  0.000  0.000  0.000  0.000  0.028
   14  0.000  0.003  0.000  0.004  0.000  0.000  0.000  0.000  0.000  0.008
   15  0.000  0.003  0.000  0.004  0.000  0.000  0.000  0.000  0.000  0.008
   16  0.000  0.001  0.000  0.006  0.000  0.000  0.000  0.000  0.000  0.008
   17  0.000  0.001  0.000  0.006  0.000  0.000  0.000  0.000  0.000  0.008
   18  0.000  0.001  0.000  0.006  0.000  0.000  0.000  0.000  0.000  0.008
   19  0.000  0.001  0.000  0.006  0.000  0.000  0.000  0.000  0.000  0.008
   20  0.000  0.007  0.000  0.020  0.000  0.000  0.000  0.000  0.000  0.028
   21  0.000  0.003  0.000  0.004  0.000  0.000  0.000  0.000  0.000  0.008
   22  0.000  0.003  0.000  0.004  0.000  0.000  0.000  0.000  0.000  0.008
   23  0.000  0.007  0.000  0.020  0.000  0.000  0.000  0.000  0.000  0.028
   24  0.000  0.007  0.000  0.020  0.000  0.000  0.000  0.000  0.000  0.028
   25  0.000  0.003  0.000  0.004  0.000  0.000  0.000  0.000  0.000  0.008
   26  0.000  0.003  0.000  0.004  0.000  0.000  0.000  0.000  0.000  0.008
   27  0.000  0.007  0.000  0.020  0.000  0.000  0.000  0.000  0.000  0.028
   28  0.000  0.007  0.000  0.020  0.000  0.000  0.000  0.000  0.000  0.028
   29  0.000  0.001  0.000  0.006  0.000  0.000  0.000  0.000  0.000  0.008
   30  0.000  0.001  0.000  0.006  0.000  0.000  0.000  0.000  0.000  0.008
   31  0.000  0.001  0.000  0.006  0.000  0.000  0.000  0.000  0.000  0.008
   32  0.000  0.001  0.000  0.006  0.000  0.000  0.000  0.000  0.000  0.008
   33  0.000  0.003  0.000  0.004  0.000  0.000  0.000  0.000  0.000  0.008
   34  0.000  0.003  0.000  0.004  0.000  0.000  0.000  0.000  0.000  0.008
   35  0.000  0.007  0.000  0.020  0.000  0.000  0.000  0.000  0.000  0.028
   36  0.000  0.007  0.000  0.020  0.000  0.000  0.000  0.000  0.000  0.028
tot    0.010  0.117  0.001  0.267  0.114  0.002  0.133  0.004  0.077  0.724
 
band    80 # energy   -2.76215806 # occ.  1.00000000
 
ion      s     py     pz     px    dxy    dyz    dz2    dxz  x2-y2    tot
    1  0.000  0.000  0.005  0.000  0.000  0.009  0.000  0.005  0.000  0.018
    2  0.000  0.000  0.006  0.000  0.000  0.000  0.000  0.000  0.000  0.006
    3  0.000  0.000  0.005  0.000  0.000  0.012  0.000  0.002  0.000  0.018
    4  0.000  0.000  0.000  0.000  0.000  0.041  0.000  0.014  0.000  0.054
    5  0.000  0.000  0.006  0.000  0.000  0.000  0.000  0.000  0.000  0.006
    6  0.000  0.000  0.006  0.000  0.000  0.000  0.000  0.000  0.000  0.006
    7  0.000  0.000  0.000  0.000  0.000  0.000  0.000  0.000  0.000  0.000
    8  0.000  0.000  0.006  0.000  0.000  0.000  0.000  0.000  0.000  0.006
    9  0.000  0.000  0.000  0.000  0.000  0.000  0.000  0.000  0.000  0.000
   10  0.000  0.000  0.005  0.000  0.000  0.012  0.000  0.002  0.000  0.018
   11  0.000  0.000  0.000  0.000  0.000  0.041  0.000  0.014  0.000  0.054
   12  0.000  0.000  0.005  0.000  0.000  0.009  0.000  0.005  0.000  0.018
   13  0.000  0.011  0.000  0.004  0.000  0.000  0.000  0.000  0.000  0.015
   14  0.000  0.008  0.000  0.001  0.000  0.000  0.000  0.000  0.000  0.009
   15  0.000  0.008  0.000  0.001  0.000  0.000  0.000  0.000  0.000  0.009
   16  0.002  0.000  0.041  0.000  0.000  0.000  0.000  0.000  0.000  0.044
   17  0.002  0.000  0.041  0.000  0.000  0.000  0.000  0.000  0.000  0.044
   18  0.000  0.000  0.000  0.008  0.000  0.000  0.000  0.000  0.000  0.009
   19  0.000  0.000  0.000  0.008  0.000  0.000  0.000  0.000  0.000  0.009
   20  0.000  0.011  0.000  0.004  0.000  0.000  0.000  0.000  0.000  0.015
   21  0.000  0.008  0.000  0.001  0.000  0.000  0.000  0.000  0.000  0.009
   22  0.000  0.008  0.000  0.001  0.000  0.000  0.000  0.000  0.000  0.009
   23  0.000  0.001  0.000  0.000  0.000  0.000  0.000  0.000  0.000  0.001
   24  0.000  0.001  0.000  0.000  0.000  0.000  0.000  0.000  0.000  0.001
   25  0.002  0.000  0.041  0.000  0.000  0.000  0.000  0.000  0.000  0.044
   26  0.002  0.000  0.041  0.000  0.000  0.000  0.000  0.000  0.000  0.044
   27  0.000  0.011  0.000  0.004  0.000  0.000  0.000  0.000  0.000  0.015
   28  0.000  0.011  0.000  0.004  0.000  0.000  0.000  0.000  0.000  0.015
   29  0.002  0.000  0.041  0.000  0.000  0.000  0.000  0.000  0.000  0.044
   30  0.000  0.000  0.000  0.008  0.000  0.000  0.000  0.000  0.000  0.009
   31  0.000  0.000  0.000  0.008  0.000  0.000  0.000  0.000  0.000  0.009
   32  0.002  0.000  0.041  0.000  0.000  0.000  0.000  0.000  0.000  0.044
   33  0.002  0.000  0.041  0.000  0.000  0.000  0.000  0.000  0.000  0.044
   34  0.002  0.000  0.041  0.000  0.000  0.000  0.000  0.000  0.000  0.044
   35  0.000  0.001  0.000  0.000  0.000  0.000  0.000  0.000  0.000  0.001
   36  0.000  0.001  0.000  0.000  0.000  0.000  0.000  0.000  0.000  0.001
tot    0.019  0.083  0.371  0.053  0.000  0.123  0.000  0.043  0.000  0.692
 
band    81 # energy   -2.76204578 # occ.  1.00000000
 
ion      s     py     pz     px    dxy    dyz    dz2    dxz  x2-y2    tot
    1  0.000  0.000  0.002  0.000  0.000  0.032  0.000  0.009  0.000  0.042
    2  0.000  0.000  0.002  0.000  0.000  0.000  0.000  0.000  0.000  0.002
    3  0.000  0.000  0.002  0.000  0.000  0.029  0.000  0.012  0.000  0.042
    4  0.000  0.000  0.006  0.000  0.000  0.000  0.000  0.000  0.000  0.006
    5  0.000  0.000  0.002  0.000  0.000  0.000  0.000  0.000  0.000  0.002
    6  0.000  0.000  0.002  0.000  0.000  0.000  0.000  0.000  0.000  0.002
    7  0.000  0.000  0.008  0.000  0.000  0.000  0.000  0.000  0.000  0.008
    8  0.000  0.000  0.002  0.000  0.000  0.000  0.000  0.000  0.000  0.002
    9  0.000  0.000  0.008  0.000  0.000  0.000  0.000  0.000  0.000  0.008
   10  0.000  0.000  0.002  0.000  0.000  0.029  0.000  0.012  0.000  0.042
   11  0.000  0.000  0.006  0.000  0.000  0.000  0.000  0.000  0.000  0.006
   12  0.000  0.000  0.002  0.000  0.000  0.032  0.000  0.009  0.000  0.042
   13  0.000  0.002  0.000  0.004  0.000  0.000  0.000  0.000  0.000  0.007
   14  0.000  0.005  0.000  0.008  0.000  0.000  0.000  0.000  0.000  0.013
   15  0.000  0.005  0.000  0.008  0.000  0.000  0.000  0.000  0.000  0.013
   16  0.001  0.001  0.014  0.000  0.000  0.000  0.000  0.000  0.000  0.015
   17  0.001  0.001  0.014  0.000  0.000  0.000  0.000  0.000  0.000  0.015
   18  0.000  0.012  0.000  0.000  0.000  0.000  0.000  0.000  0.000  0.013
   19  0.000  0.012  0.000  0.000  0.000  0.000  0.000  0.000  0.000  0.013
   20  0.000  0.002  0.000  0.005  0.000  0.000  0.000  0.000  0.000  0.007
   21  0.000  0.005  0.000  0.008  0.000  0.000  0.000  0.000  0.000  0.013
   22  0.000  0.005  0.000  0.008  0.000  0.000  0.000  0.000  0.000  0.013
   23  0.003  0.000  0.055  0.000  0.000  0.000  0.000  0.000  0.000  0.058
   24  0.003  0.000  0.055  0.000  0.000  0.000  0.000  0.000  0.000  0.058
   25  0.001  0.001  0.014  0.000  0.000  0.000  0.000  0.000  0.000  0.016
   26  0.001  0.001  0.014  0.000  0.000  0.000  0.000  0.000  0.000  0.016
   27  0.000  0.002  0.000  0.005  0.000  0.000  0.000  0.000  0.000  0.007
   28  0.000  0.002  0.000  0.004  0.000  0.000  0.000  0.000  0.000  0.007
   29  0.001  0.001  0.014  0.000  0.000  0.000  0.000  0.000  0.000  0.015
   30  0.000  0.012  0.000  0.000  0.000  0.000  0.000  0.000  0.000  0.013
   31  0.000  0.012  0.000  0.000  0.000  0.000  0.000  0.000  0.000  0.013
   32  0.001  0.001  0.014  0.000  0.000  0.000  0.000  0.000  0.000  0.015
   33  0.001  0.001  0.014  0.000  0.000  0.000  0.000  0.000  0.000  0.016
   34  0.001  0.001  0.014  0.000  0.000  0.000  0.000  0.000  0.000  0.016
   35  0.003  0.000  0.055  0.000  0.000  0.000  0.000  0.000  0.000  0.058
   36  0.003  0.000  0.055  0.000  0.000  0.000  0.000  0.000  0.000  0.058
tot    0.019  0.083  0.371  0.053  0.000  0.123  0.000  0.043  0.000  0.692
 
band    82 # energy   -2.76154957 # occ.  1.00000000
 
ion      s     py     pz     px    dxy    dyz    dz2    dxz  x2-y2    tot
    1  0.000  0.000  0.006  0.000  0.000  0.000  0.000  0.000  0.000  0.006
    2  0.000  0.000  0.005  0.000  0.000  0.012  0.000  0.002  0.000  0.018
    3  0.000  0.000  0.006  0.000  0.000  0.000  0.000  0.000  0.000  0.006
    4  0.000  0.000  0.000  0.000  0.000  0.000  0.000  0.000  0.000  0.000
    5  0.000  0.000  0.005  0.000  0.000  0.012  0.000  0.002  0.000  0.018
    6  0.000  0.000  0.005  0.000  0.000  0.009  0.000  0.005  0.000  0.018
    7  0.000  0.000  0.000  0.000  0.000  0.041  0.000  0.014  0.000  0.054
    8  0.000  0.000  0.005  0.000  0.000  0.009  0.000  0.005  0.000  0.018
    9  0.000  0.000  0.000  0.000  0.000  0.041  0.000  0.014  0.000  0.054
   10  0.000  0.000  0.006  0.000  0.000  0.000  0.000  0.000  0.000  0.006
   11  0.000  0.000  0.000  0.000  0.000  0.000  0.000  0.000  0.000  0.000
   12  0.000  0.000  0.006  0.000  0.000  0.000  0.000  0.000  0.000  0.006
   13  0.000  0.001  0.000  0.000  0.000  0.000  0.000  0.000  0.000  0.001
   14  0.002  0.000  0.041  0.000  0.000  0.000  0.000  0.000  0.000  0.044
   15  0.002  0.000  0.041  0.000  0.000  0.000  0.000  0.000  0.000  0.044
   16  0.000  0.000  0.000  0.008  0.000  0.000  0.000  0.000  0.000  0.009
   17  0.000  0.000  0.000  0.008  0.000  0.000  0.000  0.000  0.000  0.009
   18  0.002  0.000  0.041  0.000  0.000  0.000  0.000  0.000  0.000  0.044
   19  0.002  0.000  0.041  0.000  0.000  0.000  0.000  0.000  0.000  0.044
   20  0.000  0.001  0.000  0.000  0.000  0.000  0.000  0.000  0.000  0.001
   21  0.002  0.000  0.041  0.000  0.000  0.000  0.000  0.000  0.000  0.044
   22  0.002  0.000  0.041  0.000  0.000  0.000  0.000  0.000  0.000  0.044
   23  0.000  0.011  0.000  0.004  0.000  0.000  0.000  0.000  0.000  0.015
   24  0.000  0.011  0.000  0.004  0.000  0.000  0.000  0.000  0.000  0.015
   25  0.000  0.008  0.000  0.001  0.000  0.000  0.000  0.000  0.000  0.009
   26  0.000  0.008  0.000  0.001  0.000  0.000  0.000  0.000  0.000  0.009
   27  0.000  0.001  0.000  0.000  0.000  0.000  0.000  0.000  0.000  0.001
   28  0.000  0.001  0.000  0.000  0.000  0.000  0.000  0.000  0.000  0.001
   29  0.000  0.000  0.000  0.008  0.000  0.000  0.000  0.000  0.000  0.009
   30  0.002  0.000  0.041  0.000  0.000  0.000  0.000  0.000  0.000  0.044
   31  0.002  0.000  0.041  0.000  0.000  0.000  0.000  0.000  0.000  0.044
   32  0.000  0.000  0.000  0.008  0.000  0.000  0.000  0.000  0.000  0.009
   33  0.000  0.008  0.000  0.001  0.000  0.000  0.000  0.000  0.000  0.009
   34  0.000  0.008  0.000  0.001  0.000  0.000  0.000  0.000  0.000  0.009
   35  0.000  0.011  0.000  0.004  0.000  0.000  0.000  0.000  0.000  0.015
   36  0.000  0.011  0.000  0.004  0.000  0.000  0.000  0.000  0.000  0.015
tot    0.019  0.083  0.371  0.053  0.000  0.123  0.000  0.043  0.000  0.692
 
band    83 # energy   -2.76143475 # occ.  1.00000000
 
ion      s     py     pz     px    dxy    dyz    dz2    dxz  x2-y2    tot
    1  0.000  0.000  0.002  0.000  0.000  0.000  0.000  0.000  0.000  0.002
    2  0.000  0.000  0.002  0.000  0.000  0.029  0.000  0.012  0.000  0.042
    3  0.000  0.000  0.002  0.000  0.000  0.000  0.000  0.000  0.000  0.002
    4  0.000  0.000  0.008  0.000  0.000  0.000  0.000  0.000  0.000  0.008
    5  0.000  0.000  0.002  0.000  0.000  0.029  0.000  0.012  0.000  0.042
    6  0.000  0.000  0.002  0.000  0.000  0.032  0.000  0.009  0.000  0.042
    7  0.000  0.000  0.006  0.000  0.000  0.000  0.000  0.000  0.000  0.006
    8  0.000  0.000  0.002  0.000  0.000  0.032  0.000  0.009  0.000  0.042
    9  0.000  0.000  0.006  0.000  0.000  0.000  0.000  0.000  0.000  0.006
   10  0.000  0.000  0.002  0.000  0.000  0.000  0.000  0.000  0.000  0.002
   11  0.000  0.000  0.008  0.000  0.000  0.000  0.000  0.000  0.000  0.008
   12  0.000  0.000  0.002  0.000  0.000  0.000  0.000  0.000  0.000  0.002
   13  0.003  0.000  0.055  0.000  0.000  0.000  0.000  0.000  0.000  0.058
   14  0.001  0.001  0.014  0.000  0.000  0.000  0.000  0.000  0.000  0.015
   15  0.001  0.001  0.014  0.000  0.000  0.000  0.000  0.000  0.000  0.015
   16  0.000  0.012  0.000  0.000  0.000  0.000  0.000  0.000  0.000  0.013
   17  0.000  0.012  0.000  0.000  0.000  0.000  0.000  0.000  0.000  0.013
   18  0.001  0.001  0.014  0.000  0.000  0.000  0.000  0.000  0.000  0.016
   19  0.001  0.001  0.014  0.000  0.000  0.000  0.000  0.000  0.000  0.016
   20  0.003  0.000  0.055  0.000  0.000  0.000  0.000  0.000  0.000  0.058
   21  0.001  0.001  0.014  0.000  0.000  0.000  0.000  0.000  0.000  0.015
   22  0.001  0.001  0.014  0.000  0.000  0.000  0.000  0.000  0.000  0.015
   23  0.000  0.001  0.000  0.005  0.000  0.000  0.000  0.000  0.000  0.007
   24  0.000  0.001  0.000  0.005  0.000  0.000  0.000  0.000  0.000  0.007
   25  0.000  0.005  0.000  0.008  0.000  0.000  0.000  0.000  0.000  0.013
   26  0.000  0.005  0.000  0.008  0.000  0.000  0.000  0.000  0.000  0.013
   27  0.003  0.000  0.055  0.000  0.000  0.000  0.000  0.000  0.000  0.058
   28  0.003  0.000  0.055  0.000  0.000  0.000  0.000  0.000  0.000  0.058
   29  0.000  0.012  0.000  0.000  0.000  0.000  0.000  0.000  0.000  0.013
   30  0.001  0.001  0.014  0.000  0.000  0.000  0.000  0.000  0.000  0.016
   31  0.001  0.001  0.014  0.000  0.000  0.000  0.000  0.000  0.000  0.016
   32  0.000  0.012  0.000  0.000  0.000  0.000  0.000  0.000  0.000  0.013
   33  0.000  0.005  0.000  0.008  0.000  0.000  0.000  0.000  0.000  0.013
   34  0.000  0.005  0.000  0.008  0.000  0.000  0.000  0.000  0.000  0.013
   35  0.000  0.001  0.000  0.005  0.000  0.000  0.000  0.000  0.000  0.007
   36  0.000  0.001  0.000  0.005  0.000  0.000  0.000  0.000  0.000  0.007
tot    0.019  0.083  0.371  0.053  0.000  0.123  0.000  0.043  0.000  0.692
 
band    84 # energy   -2.60588246 # occ.  1.00000000
 
ion      s     py     pz     px    dxy    dyz    dz2    dxz  x2-y2    tot
    1  0.001  0.003  0.000  0.007  0.004  0.000  0.001  0.000  0.001  0.017
    2  0.000  0.001  0.000  0.000  0.008  0.000  0.011  0.000  0.000  0.021
    3  0.001  0.010  0.000  0.000  0.004  0.000  0.001  0.000  0.001  0.017
    4  0.005  0.002  0.000  0.006  0.015  0.000  0.002  0.000  0.005  0.036
    5  0.000  0.001  0.000  0.000  0.008  0.000  0.011  0.000  0.000  0.021
    6  0.000  0.000  0.000  0.001  0.001  0.000  0.011  0.000  0.008  0.021
    7  0.001  0.000  0.000  0.001  0.014  0.000  0.046  0.000  0.005  0.066
    8  0.000  0.000  0.000  0.001  0.001  0.000  0.011  0.000  0.008  0.021
    9  0.001  0.000  0.000  0.001  0.014  0.000  0.046  0.000  0.005  0.066
   10  0.001  0.010  0.000  0.000  0.004  0.000  0.001  0.000  0.001  0.017
   11  0.005  0.002  0.000  0.006  0.015  0.000  0.002  0.000  0.005  0.036
   12  0.001  0.003  0.000  0.007  0.004  0.000  0.001  0.000  0.001  0.017
   13  0.000  0.004  0.001  0.011  0.000  0.000  0.000  0.000  0.000  0.016
   14  0.000  0.003  0.000  0.010  0.000  0.000  0.000  0.000  0.000  0.013
   15  0.000  0.003  0.000  0.010  0.000  0.000  0.000  0.000  0.000  0.013
   16  0.000  0.001  0.001  0.007  0.000  0.000  0.000  0.000  0.000  0.010
   17  0.000  0.001  0.001  0.007  0.000  0.000  0.000  0.000  0.000  0.010
   18  0.000  0.012  0.000  0.000  0.000  0.000  0.000  0.000  0.001  0.013
   19  0.000  0.012  0.000  0.000  0.000  0.000  0.000  0.000  0.001  0.013
   20  0.000  0.004  0.001  0.011  0.000  0.000  0.000  0.000  0.000  0.016
   21  0.000  0.003  0.000  0.010  0.000  0.000  0.000  0.000  0.000  0.013
   22  0.000  0.003  0.000  0.010  0.000  0.000  0.000  0.000  0.000  0.013
   23  0.001  0.004  0.006  0.011  0.000  0.000  0.000  0.000  0.000  0.022
   24  0.001  0.004  0.006  0.011  0.000  0.000  0.000  0.000  0.000  0.022
   25  0.000  0.008  0.001  0.000  0.000  0.000  0.000  0.000  0.000  0.010
   26  0.000  0.008  0.001  0.000  0.000  0.000  0.000  0.000  0.000  0.010
   27  0.000  0.004  0.001  0.011  0.000  0.000  0.000  0.000  0.000  0.016
   28  0.000  0.004  0.001  0.011  0.000  0.000  0.000  0.000  0.000  0.016
   29  0.000  0.001  0.001  0.007  0.000  0.000  0.000  0.000  0.000  0.010
   30  0.000  0.012  0.000  0.000  0.000  0.000  0.000  0.000  0.001  0.013
   31  0.000  0.012  0.000  0.000  0.000  0.000  0.000  0.000  0.001  0.013
   32  0.000  0.001  0.001  0.007  0.000  0.000  0.000  0.000  0.000  0.010
   33  0.000  0.008  0.001  0.000  0.000  0.000  0.000  0.000  0.000  0.010
   34  0.000  0.008  0.001  0.000  0.000  0.000  0.000  0.000  0.000  0.010
   35  0.001  0.004  0.006  0.011  0.000  0.000  0.000  0.000  0.000  0.022
   36  0.001  0.004  0.006  0.011  0.000  0.000  0.000  0.000  0.000  0.022
tot    0.024  0.156  0.041  0.185  0.096  0.001  0.144  0.003  0.046  0.696
 
band    85 # energy   -2.60575915 # occ.  1.00000000
 
ion      s     py     pz     px    dxy    dyz    dz2    dxz  x2-y2    tot
    1  0.000  0.000  0.000  0.001  0.001  0.000  0.011  0.000  0.008  0.021
    2  0.001  0.010  0.000  0.000  0.004  0.000  0.001  0.000  0.001  0.017
    3  0.000  0.001  0.000  0.000  0.008  0.000  0.011  0.000  0.000  0.021
    4  0.001  0.000  0.000  0.001  0.014  0.000  0.046  0.000  0.005  0.066
    5  0.001  0.010  0.000  0.000  0.004  0.000  0.001  0.000  0.001  0.017
    6  0.001  0.003  0.000  0.007  0.004  0.000  0.001  0.000  0.001  0.017
    7  0.005  0.002  0.000  0.006  0.015  0.000  0.002  0.000  0.005  0.036
    8  0.001  0.003  0.000  0.007  0.004  0.000  0.001  0.000  0.001  0.017
    9  0.005  0.002  0.000  0.006  0.015  0.000  0.002  0.000  0.005  0.036
   10  0.000  0.001  0.000  0.000  0.008  0.000  0.011  0.000  0.000  0.021
   11  0.001  0.000  0.000  0.001  0.014  0.000  0.046  0.000  0.005  0.066
   12  0.000  0.000  0.000  0.001  0.001  0.000  0.011  0.000  0.008  0.021
   13  0.001  0.004  0.006  0.011  0.000  0.000  0.000  0.000  0.000  0.022
   14  0.000  0.008  0.001  0.000  0.000  0.000  0.000  0.000  0.000  0.010
   15  0.000  0.008  0.001  0.000  0.000  0.000  0.000  0.000  0.000  0.010
   16  0.000  0.012  0.000  0.000  0.000  0.000  0.000  0.000  0.001  0.013
   17  0.000  0.012  0.000  0.000  0.000  0.000  0.000  0.000  0.001  0.013
   18  0.000  0.001  0.001  0.007  0.000  0.000  0.000  0.000  0.000  0.011
   19  0.000  0.001  0.001  0.007  0.000  0.000  0.000  0.000  0.000  0.011
   20  0.001  0.004  0.006  0.011  0.000  0.000  0.000  0.000  0.000  0.022
   21  0.000  0.008  0.001  0.000  0.000  0.000  0.000  0.000  0.000  0.010
   22  0.000  0.008  0.001  0.000  0.000  0.000  0.000  0.000  0.000  0.010
   23  0.000  0.004  0.001  0.011  0.000  0.000  0.000  0.000  0.000  0.016
   24  0.000  0.004  0.001  0.011  0.000  0.000  0.000  0.000  0.000  0.016
   25  0.000  0.002  0.000  0.010  0.000  0.000  0.000  0.000  0.000  0.013
   26  0.000  0.002  0.000  0.010  0.000  0.000  0.000  0.000  0.000  0.013
   27  0.001  0.004  0.006  0.011  0.000  0.000  0.000  0.000  0.000  0.022
   28  0.001  0.004  0.006  0.011  0.000  0.000  0.000  0.000  0.000  0.022
   29  0.000  0.012  0.000  0.000  0.000  0.000  0.000  0.000  0.001  0.013
   30  0.000  0.001  0.001  0.007  0.000  0.000  0.000  0.000  0.000  0.011
   31  0.000  0.001  0.001  0.007  0.000  0.000  0.000  0.000  0.000  0.011
   32  0.000  0.012  0.000  0.000  0.000  0.000  0.000  0.000  0.001  0.013
   33  0.000  0.002  0.000  0.010  0.000  0.000  0.000  0.000  0.000  0.013
   34  0.000  0.002  0.000  0.010  0.000  0.000  0.000  0.000  0.000  0.013
   35  0.000  0.004  0.001  0.011  0.000  0.000  0.000  0.000  0.000  0.016
   36  0.000  0.004  0.001  0.011  0.000  0.000  0.000  0.000  0.000  0.016
tot    0.024  0.155  0.041  0.186  0.095  0.001  0.144  0.003  0.047  0.696
 
band    86 # energy   -2.60551706 # occ.  1.00000000
 
ion      s     py     pz     px    dxy    dyz    dz2    dxz  x2-y2    tot
    1  0.004  0.007  0.000  0.002  0.012  0.000  0.002  0.000  0.004  0.030
    2  0.000  0.000  0.000  0.001  0.007  0.000  0.034  0.000  0.008  0.050
    3  0.004  0.000  0.000  0.009  0.012  0.000  0.002  0.000  0.004  0.030
    4  0.000  0.008  0.000  0.003  0.000  0.000  0.000  0.000  0.000  0.011
    5  0.000  0.000  0.000  0.001  0.007  0.000  0.034  0.000  0.008  0.050
    6  0.000  0.001  0.000  0.000  0.014  0.000  0.034  0.000  0.001  0.050
    7  0.000  0.001  0.000  0.000  0.001  0.000  0.000  0.000  0.004  0.006
    8  0.000  0.001  0.000  0.000  0.014  0.000  0.034  0.000  0.001  0.050
    9  0.000  0.001  0.000  0.000  0.001  0.000  0.000  0.000  0.004  0.006
   10  0.004  0.000  0.000  0.009  0.012  0.000  0.002  0.000  0.004  0.030
   11  0.000  0.008  0.000  0.003  0.000  0.000  0.000  0.000  0.000  0.011
   12  0.004  0.007  0.000  0.002  0.012  0.000  0.002  0.000  0.004  0.030
   13  0.000  0.009  0.000  0.003  0.000  0.000  0.000  0.000  0.000  0.012
   14  0.000  0.010  0.001  0.004  0.000  0.000  0.000  0.000  0.000  0.015
   15  0.000  0.010  0.001  0.004  0.000  0.000  0.000  0.000  0.000  0.015
   16  0.001  0.007  0.004  0.005  0.000  0.000  0.000  0.000  0.000  0.019
   17  0.001  0.007  0.004  0.005  0.000  0.000  0.000  0.000  0.000  0.019
   18  0.000  0.000  0.001  0.013  0.000  0.000  0.000  0.000  0.000  0.014
   19  0.000  0.000  0.001  0.013  0.000  0.000  0.000  0.000  0.000  0.014
   20  0.000  0.009  0.000  0.003  0.000  0.000  0.000  0.000  0.000  0.012
   21  0.000  0.010  0.001  0.004  0.000  0.000  0.000  0.000  0.000  0.015
   22  0.000  0.010  0.001  0.004  0.000  0.000  0.000  0.000  0.000  0.015
   23  0.000  0.005  0.000  0.001  0.000  0.000  0.000  0.000  0.000  0.006
   24  0.000  0.005  0.000  0.001  0.000  0.000  0.000  0.000  0.000  0.006
   25  0.001  0.000  0.004  0.012  0.000  0.000  0.000  0.000  0.000  0.019
   26  0.001  0.000  0.004  0.012  0.000  0.000  0.000  0.000  0.000  0.019
   27  0.000  0.009  0.000  0.003  0.000  0.000  0.000  0.000  0.000  0.012
   28  0.000  0.009  0.000  0.003  0.000  0.000  0.000  0.000  0.000  0.012
   29  0.001  0.007  0.004  0.005  0.000  0.000  0.000  0.000  0.000  0.019
   30  0.000  0.000  0.001  0.013  0.000  0.000  0.000  0.000  0.000  0.014
   31  0.000  0.000  0.001  0.013  0.000  0.000  0.000  0.000  0.000  0.014
   32  0.001  0.007  0.004  0.005  0.000  0.000  0.000  0.000  0.000  0.019
   33  0.001  0.000  0.004  0.012  0.000  0.000  0.000  0.000  0.000  0.019
   34  0.001  0.000  0.004  0.012  0.000  0.000  0.000  0.000  0.000  0.019
   35  0.000  0.005  0.000  0.001  0.000  0.000  0.000  0.000  0.000  0.006
   36  0.000  0.005  0.000  0.001  0.000  0.000  0.000  0.000  0.000  0.006
tot    0.024  0.156  0.041  0.185  0.096  0.001  0.144  0.003  0.046  0.696
 
band    87 # energy   -2.60539369 # occ.  1.00000000
 
ion      s     py     pz     px    dxy    dyz    dz2    dxz  x2-y2    tot
    1  0.000  0.001  0.000  0.000  0.014  0.000  0.034  0.000  0.001  0.050
    2  0.004  0.000  0.000  0.009  0.012  0.000  0.002  0.000  0.004  0.030
    3  0.000  0.000  0.000  0.001  0.007  0.000  0.034  0.000  0.008  0.050
    4  0.000  0.001  0.000  0.000  0.001  0.000  0.000  0.000  0.004  0.006
    5  0.004  0.000  0.000  0.009  0.012  0.000  0.002  0.000  0.004  0.030
    6  0.004  0.007  0.000  0.002  0.012  0.000  0.002  0.000  0.004  0.030
    7  0.000  0.008  0.000  0.003  0.000  0.000  0.000  0.000  0.000  0.011
    8  0.004  0.007  0.000  0.002  0.012  0.000  0.002  0.000  0.004  0.030
    9  0.000  0.008  0.000  0.003  0.000  0.000  0.000  0.000  0.000  0.011
   10  0.000  0.000  0.000  0.001  0.007  0.000  0.034  0.000  0.008  0.050
   11  0.000  0.001  0.000  0.000  0.001  0.000  0.000  0.000  0.004  0.006
   12  0.000  0.001  0.000  0.000  0.014  0.000  0.034  0.000  0.001  0.050
   13  0.000  0.004  0.000  0.002  0.000  0.000  0.000  0.000  0.000  0.006
   14  0.001  0.000  0.004  0.012  0.000  0.000  0.000  0.000  0.000  0.019
   15  0.001  0.000  0.004  0.012  0.000  0.000  0.000  0.000  0.000  0.019
   16  0.000  0.000  0.001  0.013  0.000  0.000  0.000  0.000  0.000  0.015
   17  0.000  0.000  0.001  0.013  0.000  0.000  0.000  0.000  0.000  0.015
   18  0.001  0.007  0.004  0.005  0.000  0.000  0.000  0.000  0.000  0.019
   19  0.001  0.007  0.004  0.005  0.000  0.000  0.000  0.000  0.000  0.019
   20  0.000  0.005  0.000  0.002  0.000  0.000  0.000  0.000  0.000  0.006
   21  0.001  0.000  0.004  0.012  0.000  0.000  0.000  0.000  0.000  0.019
   22  0.001  0.000  0.004  0.012  0.000  0.000  0.000  0.000  0.000  0.019
   23  0.000  0.009  0.000  0.003  0.000  0.000  0.000  0.000  0.000  0.012
   24  0.000  0.009  0.000  0.003  0.000  0.000  0.000  0.000  0.000  0.012
   25  0.000  0.010  0.001  0.004  0.000  0.000  0.000  0.000  0.000  0.014
   26  0.000  0.010  0.001  0.004  0.000  0.000  0.000  0.000  0.000  0.014
   27  0.000  0.005  0.000  0.002  0.000  0.000  0.000  0.000  0.000  0.006
   28  0.000  0.004  0.000  0.002  0.000  0.000  0.000  0.000  0.000  0.006
   29  0.000  0.000  0.001  0.013  0.000  0.000  0.000  0.000  0.000  0.015
   30  0.001  0.007  0.004  0.005  0.000  0.000  0.000  0.000  0.000  0.019
   31  0.001  0.007  0.004  0.005  0.000  0.000  0.000  0.000  0.000  0.019
   32  0.000  0.000  0.001  0.013  0.000  0.000  0.000  0.000  0.000  0.015
   33  0.000  0.010  0.001  0.004  0.000  0.000  0.000  0.000  0.000  0.014
   34  0.000  0.010  0.001  0.004  0.000  0.000  0.000  0.000  0.000  0.014
   35  0.000  0.009  0.000  0.003  0.000  0.000  0.000  0.000  0.000  0.012
   36  0.000  0.009  0.000  0.003  0.000  0.000  0.000  0.000  0.000  0.012
tot    0.024  0.156  0.041  0.186  0.096  0.001  0.144  0.003  0.047  0.696
 
band    88 # energy   -2.53772888 # occ.  1.00000000
 
ion      s     py     pz     px    dxy    dyz    dz2    dxz  x2-y2    tot
    1  0.000  0.003  0.000  0.001  0.000  0.000  0.000  0.000  0.001  0.005
    2  0.000  0.001  0.000  0.000  0.019  0.000  0.000  0.000  0.056  0.075
    3  0.000  0.003  0.000  0.001  0.000  0.000  0.000  0.000  0.001  0.005
    4  0.000  0.003  0.000  0.001  0.000  0.000  0.000  0.000  0.001  0.005
    5  0.000  0.001  0.000  0.000  0.019  0.000  0.000  0.000  0.056  0.075
    6  0.000  0.001  0.000  0.000  0.019  0.000  0.000  0.000  0.056  0.075
    7  0.000  0.001  0.000  0.000  0.019  0.000  0.000  0.000  0.056  0.075
    8  0.000  0.001  0.000  0.000  0.019  0.000  0.000  0.000  0.056  0.075
    9  0.000  0.001  0.000  0.000  0.019  0.000  0.000  0.000  0.056  0.075
   10  0.000  0.003  0.000  0.001  0.000  0.000  0.000  0.000  0.001  0.005
   11  0.000  0.003  0.000  0.001  0.000  0.000  0.000  0.000  0.001  0.005
   12  0.000  0.003  0.000  0.001  0.000  0.000  0.000  0.000  0.001  0.005
   13  0.000  0.013  0.000  0.004  0.000  0.000  0.000  0.000  0.000  0.017
   14  0.000  0.013  0.000  0.004  0.000  0.000  0.000  0.000  0.000  0.018
   15  0.000  0.013  0.000  0.004  0.000  0.000  0.000  0.000  0.000  0.018
   16  0.000  0.007  0.000  0.002  0.000  0.000  0.000  0.000  0.000  0.010
   17  0.000  0.007  0.000  0.002  0.000  0.000  0.000  0.000  0.000  0.010
   18  0.000  0.013  0.000  0.004  0.000  0.000  0.000  0.000  0.000  0.018
   19  0.000  0.013  0.000  0.004  0.000  0.000  0.000  0.000  0.000  0.018
   20  0.000  0.013  0.000  0.004  0.000  0.000  0.000  0.000  0.000  0.017
   21  0.000  0.013  0.000  0.004  0.000  0.000  0.000  0.000  0.000  0.018
   22  0.000  0.013  0.000  0.004  0.000  0.000  0.000  0.000  0.000  0.018
   23  0.000  0.007  0.000  0.002  0.000  0.000  0.000  0.000  0.000  0.010
   24  0.000  0.007  0.000  0.002  0.000  0.000  0.000  0.000  0.000  0.010
   25  0.000  0.007  0.000  0.002  0.000  0.000  0.000  0.000  0.000  0.010
   26  0.000  0.007  0.000  0.002  0.000  0.000  0.000  0.000  0.000  0.010
   27  0.000  0.013  0.000  0.004  0.000  0.000  0.000  0.000  0.000  0.017
   28  0.000  0.013  0.000  0.004  0.000  0.000  0.000  0.000  0.000  0.017
   29  0.000  0.007  0.000  0.002  0.000  0.000  0.000  0.000  0.000  0.010
   30  0.000  0.013  0.000  0.004  0.000  0.000  0.000  0.000  0.000  0.018
   31  0.000  0.013  0.000  0.004  0.000  0.000  0.000  0.000  0.000  0.018
   32  0.000  0.007  0.000  0.002  0.000  0.000  0.000  0.000  0.000  0.010
   33  0.000  0.007  0.000  0.002  0.000  0.000  0.000  0.000  0.000  0.010
   34  0.000  0.007  0.000  0.002  0.000  0.000  0.000  0.000  0.000  0.010
   35  0.000  0.007  0.000  0.002  0.000  0.000  0.000  0.000  0.000  0.010
   36  0.000  0.007  0.000  0.002  0.000  0.000  0.000  0.000  0.000  0.010
tot    0.000  0.263  0.000  0.088  0.113  0.007  0.000  0.002  0.340  0.813
 
band    89 # energy   -2.53751941 # occ.  1.00000000
 
ion      s     py     pz     px    dxy    dyz    dz2    dxz  x2-y2    tot
    1  0.000  0.001  0.000  0.000  0.019  0.000  0.000  0.000  0.056  0.075
    2  0.000  0.003  0.000  0.001  0.000  0.000  0.000  0.000  0.001  0.005
    3  0.000  0.001  0.000  0.000  0.019  0.000  0.000  0.000  0.056  0.075
    4  0.000  0.001  0.000  0.000  0.019  0.000  0.000  0.000  0.056  0.075
    5  0.000  0.003  0.000  0.001  0.000  0.000  0.000  0.000  0.001  0.005
    6  0.000  0.003  0.000  0.001  0.000  0.000  0.000  0.000  0.001  0.005
    7  0.000  0.003  0.000  0.001  0.000  0.000  0.000  0.000  0.001  0.005
    8  0.000  0.003  0.000  0.001  0.000  0.000  0.000  0.000  0.001  0.005
    9  0.000  0.003  0.000  0.001  0.000  0.000  0.000  0.000  0.001  0.005
   10  0.000  0.001  0.000  0.000  0.019  0.000  0.000  0.000  0.056  0.075
   11  0.000  0.001  0.000  0.000  0.019  0.000  0.000  0.000  0.056  0.075
   12  0.000  0.001  0.000  0.000  0.019  0.000  0.000  0.000  0.056  0.075
   13  0.000  0.007  0.000  0.002  0.000  0.000  0.000  0.000  0.000  0.010
   14  0.000  0.007  0.000  0.002  0.000  0.000  0.000  0.000  0.000  0.010
   15  0.000  0.007  0.000  0.002  0.000  0.000  0.000  0.000  0.000  0.010
   16  0.000  0.013  0.000  0.004  0.000  0.000  0.000  0.000  0.000  0.018
   17  0.000  0.013  0.000  0.004  0.000  0.000  0.000  0.000  0.000  0.017
   18  0.000  0.007  0.000  0.002  0.000  0.000  0.000  0.000  0.000  0.010
   19  0.000  0.007  0.000  0.002  0.000  0.000  0.000  0.000  0.000  0.010
   20  0.000  0.007  0.000  0.002  0.000  0.000  0.000  0.000  0.000  0.010
   21  0.000  0.007  0.000  0.002  0.000  0.000  0.000  0.000  0.000  0.010
   22  0.000  0.007  0.000  0.002  0.000  0.000  0.000  0.000  0.000  0.010
   23  0.000  0.013  0.000  0.004  0.000  0.000  0.000  0.000  0.000  0.017
   24  0.000  0.013  0.000  0.004  0.000  0.000  0.000  0.000  0.000  0.017
   25  0.000  0.013  0.000  0.004  0.000  0.000  0.000  0.000  0.000  0.018
   26  0.000  0.013  0.000  0.004  0.000  0.000  0.000  0.000  0.000  0.017
   27  0.000  0.007  0.000  0.002  0.000  0.000  0.000  0.000  0.000  0.010
   28  0.000  0.007  0.000  0.002  0.000  0.000  0.000  0.000  0.000  0.010
   29  0.000  0.013  0.000  0.004  0.000  0.000  0.000  0.000  0.000  0.018
   30  0.000  0.007  0.000  0.002  0.000  0.000  0.000  0.000  0.000  0.010
   31  0.000  0.007  0.000  0.002  0.000  0.000  0.000  0.000  0.000  0.010
   32  0.000  0.013  0.000  0.004  0.000  0.000  0.000  0.000  0.000  0.017
   33  0.000  0.013  0.000  0.004  0.000  0.000  0.000  0.000  0.000  0.017
   34  0.000  0.013  0.000  0.004  0.000  0.000  0.000  0.000  0.000  0.018
   35  0.000  0.013  0.000  0.004  0.000  0.000  0.000  0.000  0.000  0.017
   36  0.000  0.013  0.000  0.004  0.000  0.000  0.000  0.000  0.000  0.017
tot    0.000  0.263  0.000  0.088  0.113  0.007  0.000  0.002  0.340  0.813
 
band    90 # energy   -2.45810902 # occ.  1.00000000
 
ion      s     py     pz     px    dxy    dyz    dz2    dxz  x2-y2    tot
    1  0.000  0.000  0.011  0.000  0.000  0.000  0.000  0.000  0.000  0.011
    2  0.000  0.000  0.000  0.000  0.000  0.001  0.000  0.002  0.000  0.002
    3  0.000  0.000  0.011  0.000  0.000  0.000  0.000  0.000  0.000  0.011
    4  0.000  0.000  0.011  0.000  0.000  0.000  0.000  0.000  0.000  0.011
    5  0.000  0.000  0.000  0.000  0.000  0.001  0.000  0.002  0.000  0.002
    6  0.000  0.000  0.000  0.000  0.000  0.001  0.000  0.002  0.000  0.002
    7  0.000  0.000  0.000  0.000  0.000  0.001  0.000  0.002  0.000  0.002
    8  0.000  0.000  0.000  0.000  0.000  0.001  0.000  0.002  0.000  0.002
    9  0.000  0.000  0.000  0.000  0.000  0.001  0.000  0.002  0.000  0.002
   10  0.000  0.000  0.011  0.000  0.000  0.000  0.000  0.000  0.000  0.011
   11  0.000  0.000  0.011  0.000  0.000  0.000  0.000  0.000  0.000  0.011
   12  0.000  0.000  0.011  0.000  0.000  0.000  0.000  0.000  0.000  0.011
   13  0.001  0.001  0.002  0.003  0.000  0.000  0.000  0.000  0.000  0.007
   14  0.001  0.001  0.002  0.003  0.000  0.000  0.000  0.000  0.000  0.007
   15  0.001  0.001  0.002  0.003  0.000  0.000  0.000  0.000  0.000  0.007
   16  0.000  0.003  0.025  0.009  0.000  0.000  0.000  0.000  0.000  0.038
   17  0.000  0.003  0.025  0.009  0.000  0.000  0.000  0.000  0.000  0.038
   18  0.001  0.001  0.002  0.003  0.000  0.000  0.000  0.000  0.000  0.007
   19  0.001  0.001  0.002  0.003  0.000  0.000  0.000  0.000  0.000  0.007
   20  0.001  0.001  0.002  0.003  0.000  0.000  0.000  0.000  0.000  0.007
   21  0.001  0.001  0.002  0.003  0.000  0.000  0.000  0.000  0.000  0.007
   22  0.001  0.001  0.002  0.003  0.000  0.000  0.000  0.000  0.000  0.007
   23  0.000  0.003  0.025  0.009  0.000  0.000  0.000  0.000  0.000  0.038
   24  0.000  0.003  0.025  0.009  0.000  0.000  0.000  0.000  0.000  0.038
   25  0.000  0.003  0.025  0.009  0.000  0.000  0.000  0.000  0.000  0.038
   26  0.000  0.003  0.025  0.009  0.000  0.000  0.000  0.000  0.000  0.038
   27  0.001  0.001  0.002  0.003  0.000  0.000  0.000  0.000  0.000  0.007
   28  0.001  0.001  0.002  0.003  0.000  0.000  0.000  0.000  0.000  0.007
   29  0.000  0.003  0.025  0.009  0.000  0.000  0.000  0.000  0.000  0.038
   30  0.001  0.001  0.002  0.003  0.000  0.000  0.000  0.000  0.000  0.007
   31  0.001  0.001  0.002  0.003  0.000  0.000  0.000  0.000  0.000  0.007
   32  0.000  0.003  0.025  0.009  0.000  0.000  0.000  0.000  0.000  0.038
   33  0.000  0.003  0.025  0.009  0.000  0.000  0.000  0.000  0.000  0.038
   34  0.000  0.003  0.025  0.009  0.000  0.000  0.000  0.000  0.000  0.038
   35  0.000  0.003  0.025  0.009  0.000  0.000  0.000  0.000  0.000  0.038
   36  0.000  0.003  0.025  0.009  0.000  0.000  0.000  0.000  0.000  0.038
tot    0.019  0.047  0.397  0.141  0.000  0.004  0.001  0.011  0.000  0.620
 
band    91 # energy   -2.45755008 # occ.  1.00000000
 
ion      s     py     pz     px    dxy    dyz    dz2    dxz  x2-y2    tot
    1  0.000  0.000  0.000  0.000  0.000  0.001  0.000  0.002  0.000  0.002
    2  0.000  0.000  0.011  0.000  0.000  0.000  0.000  0.000  0.000  0.011
    3  0.000  0.000  0.000  0.000  0.000  0.001  0.000  0.002  0.000  0.002
    4  0.000  0.000  0.000  0.000  0.000  0.001  0.000  0.002  0.000  0.002
    5  0.000  0.000  0.011  0.000  0.000  0.000  0.000  0.000  0.000  0.011
    6  0.000  0.000  0.011  0.000  0.000  0.000  0.000  0.000  0.000  0.011
    7  0.000  0.000  0.011  0.000  0.000  0.000  0.000  0.000  0.000  0.011
    8  0.000  0.000  0.011  0.000  0.000  0.000  0.000  0.000  0.000  0.011
    9  0.000  0.000  0.011  0.000  0.000  0.000  0.000  0.000  0.000  0.011
   10  0.000  0.000  0.000  0.000  0.000  0.001  0.000  0.002  0.000  0.002
   11  0.000  0.000  0.000  0.000  0.000  0.001  0.000  0.002  0.000  0.002
   12  0.000  0.000  0.000  0.000  0.000  0.001  0.000  0.002  0.000  0.002
   13  0.000  0.003  0.025  0.009  0.000  0.000  0.000  0.000  0.000  0.038
   14  0.000  0.003  0.025  0.009  0.000  0.000  0.000  0.000  0.000  0.038
   15  0.000  0.003  0.025  0.009  0.000  0.000  0.000  0.000  0.000  0.038
   16  0.001  0.001  0.002  0.003  0.000  0.000  0.000  0.000  0.000  0.007
   17  0.001  0.001  0.002  0.003  0.000  0.000  0.000  0.000  0.000  0.007
   18  0.000  0.003  0.025  0.009  0.000  0.000  0.000  0.000  0.000  0.038
   19  0.000  0.003  0.025  0.009  0.000  0.000  0.000  0.000  0.000  0.038
   20  0.000  0.003  0.025  0.009  0.000  0.000  0.000  0.000  0.000  0.038
   21  0.000  0.003  0.025  0.009  0.000  0.000  0.000  0.000  0.000  0.038
   22  0.000  0.003  0.025  0.009  0.000  0.000  0.000  0.000  0.000  0.038
   23  0.001  0.001  0.002  0.003  0.000  0.000  0.000  0.000  0.000  0.007
   24  0.001  0.001  0.002  0.003  0.000  0.000  0.000  0.000  0.000  0.007
   25  0.001  0.001  0.002  0.003  0.000  0.000  0.000  0.000  0.000  0.007
   26  0.001  0.001  0.002  0.003  0.000  0.000  0.000  0.000  0.000  0.007
   27  0.000  0.003  0.025  0.009  0.000  0.000  0.000  0.000  0.000  0.038
   28  0.000  0.003  0.025  0.009  0.000  0.000  0.000  0.000  0.000  0.038
   29  0.001  0.001  0.002  0.003  0.000  0.000  0.000  0.000  0.000  0.007
   30  0.000  0.003  0.025  0.009  0.000  0.000  0.000  0.000  0.000  0.038
   31  0.000  0.003  0.025  0.009  0.000  0.000  0.000  0.000  0.000  0.038
   32  0.001  0.001  0.002  0.003  0.000  0.000  0.000  0.000  0.000  0.007
   33  0.001  0.001  0.002  0.003  0.000  0.000  0.000  0.000  0.000  0.007
   34  0.001  0.001  0.002  0.003  0.000  0.000  0.000  0.000  0.000  0.007
   35  0.001  0.001  0.002  0.003  0.000  0.000  0.000  0.000  0.000  0.007
   36  0.001  0.001  0.002  0.003  0.000  0.000  0.000  0.000  0.000  0.007
tot    0.019  0.047  0.397  0.141  0.000  0.004  0.001  0.011  0.000  0.620
 
band    92 # energy   -2.31061246 # occ.  1.00000000
 
ion      s     py     pz     px    dxy    dyz    dz2    dxz  x2-y2    tot
    1  0.000  0.000  0.000  0.000  0.000  0.038  0.000  0.013  0.000  0.050
    2  0.000  0.000  0.000  0.000  0.000  0.038  0.000  0.013  0.000  0.050
    3  0.000  0.000  0.000  0.000  0.000  0.038  0.000  0.013  0.000  0.050
    4  0.000  0.000  0.000  0.000  0.000  0.038  0.000  0.013  0.000  0.050
    5  0.000  0.000  0.000  0.000  0.000  0.038  0.000  0.013  0.000  0.050
    6  0.000  0.000  0.000  0.000  0.000  0.038  0.000  0.013  0.000  0.050
    7  0.000  0.000  0.000  0.000  0.000  0.038  0.000  0.013  0.000  0.050
    8  0.000  0.000  0.000  0.000  0.000  0.038  0.000  0.013  0.000  0.050
    9  0.000  0.000  0.000  0.000  0.000  0.038  0.000  0.013  0.000  0.050
   10  0.000  0.000  0.000  0.000  0.000  0.038  0.000  0.013  0.000  0.050
   11  0.000  0.000  0.000  0.000  0.000  0.038  0.000  0.013  0.000  0.050
   12  0.000  0.000  0.000  0.000  0.000  0.038  0.000  0.013  0.000  0.050
   13  0.000  0.008  0.000  0.003  0.000  0.000  0.000  0.000  0.000  0.012
   14  0.000  0.008  0.000  0.003  0.000  0.000  0.000  0.000  0.000  0.012
   15  0.000  0.008  0.000  0.003  0.000  0.000  0.000  0.000  0.000  0.012
   16  0.000  0.008  0.000  0.003  0.000  0.000  0.000  0.000  0.000  0.012
   17  0.000  0.008  0.000  0.003  0.000  0.000  0.000  0.000  0.000  0.012
   18  0.000  0.008  0.000  0.003  0.000  0.000  0.000  0.000  0.000  0.012
   19  0.000  0.008  0.000  0.003  0.000  0.000  0.000  0.000  0.000  0.012
   20  0.000  0.008  0.000  0.003  0.000  0.000  0.000  0.000  0.000  0.012
   21  0.000  0.008  0.000  0.003  0.000  0.000  0.000  0.000  0.000  0.012
   22  0.000  0.008  0.000  0.003  0.000  0.000  0.000  0.000  0.000  0.012
   23  0.000  0.008  0.000  0.003  0.000  0.000  0.000  0.000  0.000  0.012
   24  0.000  0.008  0.000  0.003  0.000  0.000  0.000  0.000  0.000  0.012
   25  0.000  0.008  0.000  0.003  0.000  0.000  0.000  0.000  0.000  0.012
   26  0.000  0.008  0.000  0.003  0.000  0.000  0.000  0.000  0.000  0.012
   27  0.000  0.008  0.000  0.003  0.000  0.000  0.000  0.000  0.000  0.012
   28  0.000  0.008  0.000  0.003  0.000  0.000  0.000  0.000  0.000  0.012
   29  0.000  0.008  0.000  0.003  0.000  0.000  0.000  0.000  0.000  0.012
   30  0.000  0.008  0.000  0.003  0.000  0.000  0.000  0.000  0.000  0.012
   31  0.000  0.008  0.000  0.003  0.000  0.000  0.000  0.000  0.000  0.012
   32  0.000  0.008  0.000  0.003  0.000  0.000  0.000  0.000  0.000  0.012
   33  0.000  0.008  0.000  0.003  0.000  0.000  0.000  0.000  0.000  0.012
   34  0.000  0.008  0.000  0.003  0.000  0.000  0.000  0.000  0.000  0.012
   35  0.000  0.008  0.000  0.003  0.000  0.000  0.000  0.000  0.000  0.012
   36  0.000  0.008  0.000  0.003  0.000  0.000  0.000  0.000  0.000  0.012
tot    0.000  0.202  0.000  0.067  0.003  0.458  0.000  0.153  0.008  0.892
 
band    93 # energy   -2.28302138 # occ.  1.00000000
 
ion      s     py     pz     px    dxy    dyz    dz2    dxz  x2-y2    tot
    1  0.000  0.000  0.000  0.000  0.000  0.013  0.000  0.038  0.000  0.051
    2  0.000  0.000  0.000  0.000  0.000  0.013  0.000  0.038  0.000  0.051
    3  0.000  0.000  0.000  0.000  0.000  0.013  0.000  0.038  0.000  0.051
    4  0.000  0.000  0.000  0.000  0.000  0.013  0.000  0.038  0.000  0.051
    5  0.000  0.000  0.000  0.000  0.000  0.013  0.000  0.038  0.000  0.051
    6  0.000  0.000  0.000  0.000  0.000  0.013  0.000  0.038  0.000  0.051
    7  0.000  0.000  0.000  0.000  0.000  0.013  0.000  0.038  0.000  0.051
    8  0.000  0.000  0.000  0.000  0.000  0.013  0.000  0.038  0.000  0.051
    9  0.000  0.000  0.000  0.000  0.000  0.013  0.000  0.038  0.000  0.051
   10  0.000  0.000  0.000  0.000  0.000  0.013  0.000  0.038  0.000  0.051
   11  0.000  0.000  0.000  0.000  0.000  0.013  0.000  0.038  0.000  0.051
   12  0.000  0.000  0.000  0.000  0.000  0.013  0.000  0.038  0.000  0.051
   13  0.000  0.003  0.000  0.008  0.000  0.000  0.000  0.000  0.000  0.012
   14  0.000  0.003  0.000  0.008  0.000  0.000  0.000  0.000  0.000  0.012
   15  0.000  0.003  0.000  0.008  0.000  0.000  0.000  0.000  0.000  0.012
   16  0.000  0.003  0.000  0.008  0.000  0.000  0.000  0.000  0.000  0.012
   17  0.000  0.003  0.000  0.008  0.000  0.000  0.000  0.000  0.000  0.012
   18  0.000  0.003  0.000  0.008  0.000  0.000  0.000  0.000  0.000  0.012
   19  0.000  0.003  0.000  0.008  0.000  0.000  0.000  0.000  0.000  0.012
   20  0.000  0.003  0.000  0.008  0.000  0.000  0.000  0.000  0.000  0.012
   21  0.000  0.003  0.000  0.008  0.000  0.000  0.000  0.000  0.000  0.012
   22  0.000  0.003  0.000  0.008  0.000  0.000  0.000  0.000  0.000  0.012
   23  0.000  0.003  0.000  0.008  0.000  0.000  0.000  0.000  0.000  0.012
   24  0.000  0.003  0.000  0.008  0.000  0.000  0.000  0.000  0.000  0.012
   25  0.000  0.003  0.000  0.008  0.000  0.000  0.000  0.000  0.000  0.012
   26  0.000  0.003  0.000  0.008  0.000  0.000  0.000  0.000  0.000  0.012
   27  0.000  0.003  0.000  0.008  0.000  0.000  0.000  0.000  0.000  0.012
   28  0.000  0.003  0.000  0.008  0.000  0.000  0.000  0.000  0.000  0.012
   29  0.000  0.003  0.000  0.008  0.000  0.000  0.000  0.000  0.000  0.012
   30  0.000  0.003  0.000  0.008  0.000  0.000  0.000  0.000  0.000  0.012
   31  0.000  0.003  0.000  0.008  0.000  0.000  0.000  0.000  0.000  0.012
   32  0.000  0.003  0.000  0.008  0.000  0.000  0.000  0.000  0.000  0.012
   33  0.000  0.003  0.000  0.008  0.000  0.000  0.000  0.000  0.000  0.012
   34  0.000  0.003  0.000  0.008  0.000  0.000  0.000  0.000  0.000  0.012
   35  0.000  0.003  0.000  0.008  0.000  0.000  0.000  0.000  0.000  0.012
   36  0.000  0.003  0.000  0.008  0.000  0.000  0.000  0.000  0.000  0.012
tot    0.000  0.066  0.000  0.197  0.009  0.154  0.000  0.463  0.003  0.892
 
band    94 # energy   -2.14126964 # occ.  1.00000000
 
ion      s     py     pz     px    dxy    dyz    dz2    dxz  x2-y2    tot
    1  0.000  0.000  0.003  0.000  0.000  0.001  0.000  0.002  0.000  0.005
    2  0.000  0.000  0.003  0.000  0.000  0.000  0.000  0.002  0.000  0.005
    3  0.000  0.000  0.003  0.000  0.000  0.000  0.000  0.002  0.000  0.005
    4  0.000  0.000  0.012  0.000  0.000  0.002  0.000  0.007  0.000  0.021
    5  0.000  0.000  0.003  0.000  0.000  0.000  0.000  0.002  0.000  0.005
    6  0.000  0.000  0.003  0.000  0.000  0.001  0.000  0.002  0.000  0.005
    7  0.000  0.000  0.012  0.000  0.000  0.002  0.000  0.007  0.000  0.021
    8  0.000  0.000  0.003  0.000  0.000  0.001  0.000  0.002  0.000  0.005
    9  0.000  0.000  0.012  0.000  0.000  0.002  0.000  0.007  0.000  0.021
   10  0.000  0.000  0.003  0.000  0.000  0.000  0.000  0.002  0.000  0.005
   11  0.000  0.000  0.012  0.000  0.000  0.002  0.000  0.007  0.000  0.021
   12  0.000  0.000  0.003  0.000  0.000  0.001  0.000  0.002  0.000  0.005
   13  0.001  0.003  0.023  0.009  0.000  0.000  0.000  0.000  0.000  0.036
   14  0.000  0.010  0.006  0.000  0.000  0.000  0.000  0.000  0.000  0.016
   15  0.000  0.010  0.006  0.000  0.000  0.000  0.000  0.000  0.000  0.016
   16  0.000  0.002  0.006  0.008  0.000  0.000  0.000  0.000  0.000  0.016
   17  0.000  0.002  0.006  0.008  0.000  0.000  0.000  0.000  0.000  0.016
   18  0.000  0.002  0.006  0.008  0.000  0.000  0.000  0.000  0.000  0.016
   19  0.000  0.002  0.006  0.008  0.000  0.000  0.000  0.000  0.000  0.016
   20  0.001  0.003  0.023  0.009  0.000  0.000  0.000  0.000  0.000  0.036
   21  0.000  0.010  0.006  0.000  0.000  0.000  0.000  0.000  0.000  0.016
   22  0.000  0.010  0.006  0.000  0.000  0.000  0.000  0.000  0.000  0.016
   23  0.001  0.003  0.023  0.009  0.000  0.000  0.000  0.000  0.000  0.036
   24  0.001  0.003  0.023  0.009  0.000  0.000  0.000  0.000  0.000  0.036
   25  0.000  0.010  0.006  0.000  0.000  0.000  0.000  0.000  0.000  0.016
   26  0.000  0.010  0.006  0.000  0.000  0.000  0.000  0.000  0.000  0.016
   27  0.001  0.003  0.023  0.009  0.000  0.000  0.000  0.000  0.000  0.036
   28  0.001  0.003  0.023  0.009  0.000  0.000  0.000  0.000  0.000  0.036
   29  0.000  0.002  0.006  0.008  0.000  0.000  0.000  0.000  0.000  0.016
   30  0.000  0.002  0.006  0.008  0.000  0.000  0.000  0.000  0.000  0.016
   31  0.000  0.002  0.006  0.008  0.000  0.000  0.000  0.000  0.000  0.016
   32  0.000  0.002  0.006  0.008  0.000  0.000  0.000  0.000  0.000  0.016
   33  0.000  0.010  0.006  0.000  0.000  0.000  0.000  0.000  0.000  0.016
   34  0.000  0.010  0.006  0.000  0.000  0.000  0.000  0.000  0.000  0.016
   35  0.001  0.003  0.023  0.009  0.000  0.000  0.000  0.000  0.000  0.036
   36  0.001  0.003  0.023  0.009  0.000  0.000  0.000  0.000  0.000  0.036
tot    0.012  0.122  0.347  0.135  0.001  0.014  0.001  0.041  0.001  0.674
 
band    95 # energy   -2.14121319 # occ.  1.00000000
 
ion      s     py     pz     px    dxy    dyz    dz2    dxz  x2-y2    tot
    1  0.000  0.000  0.009  0.000  0.000  0.002  0.000  0.005  0.000  0.016
    2  0.000  0.000  0.009  0.000  0.000  0.002  0.000  0.005  0.000  0.016
    3  0.000  0.000  0.009  0.000  0.000  0.002  0.000  0.005  0.000  0.016
    4  0.000  0.000  0.000  0.000  0.000  0.000  0.000  0.000  0.000  0.000
    5  0.000  0.000  0.009  0.000  0.000  0.002  0.000  0.005  0.000  0.016
    6  0.000  0.000  0.009  0.000  0.000  0.002  0.000  0.005  0.000  0.016
    7  0.000  0.000  0.000  0.000  0.000  0.000  0.000  0.000  0.000  0.000
    8  0.000  0.000  0.009  0.000  0.000  0.002  0.000  0.005  0.000  0.016
    9  0.000  0.000  0.000  0.000  0.000  0.000  0.000  0.000  0.000  0.000
   10  0.000  0.000  0.009  0.000  0.000  0.002  0.000  0.005  0.000  0.016
   11  0.000  0.000  0.000  0.000  0.000  0.000  0.000  0.000  0.000  0.000
   12  0.000  0.000  0.009  0.000  0.000  0.002  0.000  0.005  0.000  0.016
   13  0.000  0.007  0.000  0.002  0.000  0.000  0.000  0.000  0.000  0.010
   14  0.001  0.000  0.017  0.011  0.000  0.000  0.000  0.000  0.000  0.029
   15  0.001  0.000  0.017  0.011  0.000  0.000  0.000  0.000  0.000  0.029
   16  0.001  0.008  0.017  0.003  0.000  0.000  0.000  0.000  0.000  0.029
   17  0.001  0.008  0.017  0.003  0.000  0.000  0.000  0.000  0.000  0.029
   18  0.001  0.008  0.017  0.003  0.000  0.000  0.000  0.000  0.000  0.029
   19  0.001  0.008  0.017  0.003  0.000  0.000  0.000  0.000  0.000  0.029
   20  0.000  0.007  0.000  0.002  0.000  0.000  0.000  0.000  0.000  0.010
   21  0.001  0.000  0.017  0.011  0.000  0.000  0.000  0.000  0.000  0.029
   22  0.001  0.000  0.017  0.011  0.000  0.000  0.000  0.000  0.000  0.029
   23  0.000  0.007  0.000  0.002  0.000  0.000  0.000  0.000  0.000  0.010
   24  0.000  0.007  0.000  0.002  0.000  0.000  0.000  0.000  0.000  0.010
   25  0.001  0.000  0.017  0.011  0.000  0.000  0.000  0.000  0.000  0.029
   26  0.001  0.000  0.017  0.011  0.000  0.000  0.000  0.000  0.000  0.029
   27  0.000  0.007  0.000  0.002  0.000  0.000  0.000  0.000  0.000  0.010
   28  0.000  0.007  0.000  0.002  0.000  0.000  0.000  0.000  0.000  0.010
   29  0.001  0.008  0.017  0.003  0.000  0.000  0.000  0.000  0.000  0.029
   30  0.001  0.008  0.017  0.003  0.000  0.000  0.000  0.000  0.000  0.029
   31  0.001  0.008  0.017  0.003  0.000  0.000  0.000  0.000  0.000  0.029
   32  0.001  0.008  0.017  0.003  0.000  0.000  0.000  0.000  0.000  0.029
   33  0.001  0.000  0.017  0.011  0.000  0.000  0.000  0.000  0.000  0.029
   34  0.001  0.000  0.017  0.011  0.000  0.000  0.000  0.000  0.000  0.029
   35  0.000  0.007  0.000  0.002  0.000  0.000  0.000  0.000  0.000  0.010
   36  0.000  0.007  0.000  0.002  0.000  0.000  0.000  0.000  0.000  0.010
tot    0.012  0.122  0.347  0.135  0.001  0.014  0.001  0.041  0.001  0.674
 
band    96 # energy   -1.90236141 # occ.  1.00000000
 
ion      s     py     pz     px    dxy    dyz    dz2    dxz  x2-y2    tot
    1  0.001  0.000  0.000  0.000  0.001  0.000  0.064  0.000  0.000  0.066
    2  0.002  0.000  0.000  0.001  0.027  0.000  0.008  0.000  0.009  0.047
    3  0.001  0.000  0.000  0.000  0.001  0.000  0.064  0.000  0.000  0.066
    4  0.001  0.000  0.000  0.000  0.001  0.000  0.064  0.000  0.000  0.066
    5  0.002  0.000  0.000  0.001  0.027  0.000  0.008  0.000  0.009  0.047
    6  0.002  0.000  0.000  0.001  0.027  0.000  0.008  0.000  0.009  0.047
    7  0.002  0.000  0.000  0.001  0.027  0.000  0.008  0.000  0.009  0.047
    8  0.002  0.000  0.000  0.001  0.027  0.000  0.008  0.000  0.009  0.047
    9  0.002  0.000  0.000  0.001  0.027  0.000  0.008  0.000  0.009  0.047
   10  0.001  0.000  0.000  0.000  0.001  0.000  0.064  0.000  0.000  0.066
   11  0.001  0.000  0.000  0.000  0.001  0.000  0.064  0.000  0.000  0.066
   12  0.001  0.000  0.000  0.000  0.001  0.000  0.064  0.000  0.000  0.066
   13  0.000  0.001  0.000  0.002  0.001  0.000  0.000  0.000  0.000  0.004
   14  0.000  0.001  0.000  0.002  0.001  0.000  0.000  0.000  0.000  0.004
   15  0.000  0.001  0.000  0.002  0.001  0.000  0.000  0.000  0.000  0.004
   16  0.001  0.000  0.005  0.000  0.000  0.000  0.000  0.000  0.000  0.007
   17  0.001  0.000  0.005  0.000  0.000  0.000  0.000  0.000  0.000  0.007
   18  0.000  0.001  0.000  0.002  0.001  0.000  0.000  0.000  0.000  0.004
   19  0.000  0.001  0.000  0.002  0.001  0.000  0.000  0.000  0.000  0.004
   20  0.000  0.001  0.000  0.002  0.001  0.000  0.000  0.000  0.000  0.004
   21  0.000  0.001  0.000  0.002  0.001  0.000  0.000  0.000  0.000  0.004
   22  0.000  0.001  0.000  0.002  0.001  0.000  0.000  0.000  0.000  0.004
   23  0.001  0.000  0.005  0.000  0.000  0.000  0.000  0.000  0.000  0.007
   24  0.001  0.000  0.005  0.000  0.000  0.000  0.000  0.000  0.000  0.007
   25  0.001  0.000  0.005  0.000  0.000  0.000  0.000  0.000  0.000  0.007
   26  0.001  0.000  0.005  0.000  0.000  0.000  0.000  0.000  0.000  0.007
   27  0.000  0.001  0.000  0.002  0.001  0.000  0.000  0.000  0.000  0.004
   28  0.000  0.001  0.000  0.002  0.001  0.000  0.000  0.000  0.000  0.004
   29  0.001  0.000  0.005  0.000  0.000  0.000  0.000  0.000  0.000  0.007
   30  0.000  0.001  0.000  0.002  0.001  0.000  0.000  0.000  0.000  0.004
   31  0.000  0.001  0.000  0.002  0.001  0.000  0.000  0.000  0.000  0.004
   32  0.001  0.000  0.005  0.000  0.000  0.000  0.000  0.000  0.000  0.007
   33  0.001  0.000  0.005  0.000  0.000  0.000  0.000  0.000  0.000  0.007
   34  0.001  0.000  0.005  0.000  0.000  0.000  0.000  0.000  0.000  0.007
   35  0.001  0.000  0.005  0.000  0.000  0.000  0.000  0.000  0.000  0.007
   36  0.001  0.000  0.005  0.000  0.000  0.000  0.000  0.000  0.000  0.007
tot    0.026  0.011  0.065  0.034  0.175  0.001  0.436  0.002  0.058  0.808
 
band    97 # energy   -1.90197328 # occ.  1.00000000
 
ion      s     py     pz     px    dxy    dyz    dz2    dxz  x2-y2    tot
    1  0.002  0.000  0.000  0.001  0.027  0.000  0.008  0.000  0.009  0.047
    2  0.001  0.000  0.000  0.000  0.001  0.000  0.064  0.000  0.000  0.066
    3  0.002  0.000  0.000  0.001  0.027  0.000  0.008  0.000  0.009  0.047
    4  0.002  0.000  0.000  0.001  0.027  0.000  0.008  0.000  0.009  0.047
    5  0.001  0.000  0.000  0.000  0.001  0.000  0.064  0.000  0.000  0.066
    6  0.001  0.000  0.000  0.000  0.001  0.000  0.064  0.000  0.000  0.066
    7  0.001  0.000  0.000  0.000  0.001  0.000  0.064  0.000  0.000  0.066
    8  0.001  0.000  0.000  0.000  0.001  0.000  0.064  0.000  0.000  0.066
    9  0.001  0.000  0.000  0.000  0.001  0.000  0.064  0.000  0.000  0.066
   10  0.002  0.000  0.000  0.001  0.027  0.000  0.008  0.000  0.009  0.047
   11  0.002  0.000  0.000  0.001  0.027  0.000  0.008  0.000  0.009  0.047
   12  0.002  0.000  0.000  0.001  0.027  0.000  0.008  0.000  0.009  0.047
   13  0.001  0.000  0.005  0.000  0.000  0.000  0.000  0.000  0.000  0.007
   14  0.001  0.000  0.005  0.000  0.000  0.000  0.000  0.000  0.000  0.007
   15  0.001  0.000  0.005  0.000  0.000  0.000  0.000  0.000  0.000  0.007
   16  0.000  0.001  0.000  0.002  0.001  0.000  0.000  0.000  0.000  0.004
   17  0.000  0.001  0.000  0.002  0.001  0.000  0.000  0.000  0.000  0.004
   18  0.001  0.000  0.005  0.000  0.000  0.000  0.000  0.000  0.000  0.007
   19  0.001  0.000  0.005  0.000  0.000  0.000  0.000  0.000  0.000  0.007
   20  0.001  0.000  0.005  0.000  0.000  0.000  0.000  0.000  0.000  0.007
   21  0.001  0.000  0.005  0.000  0.000  0.000  0.000  0.000  0.000  0.007
   22  0.001  0.000  0.005  0.000  0.000  0.000  0.000  0.000  0.000  0.007
   23  0.000  0.001  0.000  0.002  0.001  0.000  0.000  0.000  0.000  0.004
   24  0.000  0.001  0.000  0.002  0.001  0.000  0.000  0.000  0.000  0.004
   25  0.000  0.001  0.000  0.002  0.001  0.000  0.000  0.000  0.000  0.004
   26  0.000  0.001  0.000  0.002  0.001  0.000  0.000  0.000  0.000  0.004
   27  0.001  0.000  0.005  0.000  0.000  0.000  0.000  0.000  0.000  0.007
   28  0.001  0.000  0.005  0.000  0.000  0.000  0.000  0.000  0.000  0.007
   29  0.000  0.001  0.000  0.002  0.001  0.000  0.000  0.000  0.000  0.004
   30  0.001  0.000  0.005  0.000  0.000  0.000  0.000  0.000  0.000  0.007
   31  0.001  0.000  0.005  0.000  0.000  0.000  0.000  0.000  0.000  0.007
   32  0.000  0.001  0.000  0.002  0.001  0.000  0.000  0.000  0.000  0.004
   33  0.000  0.001  0.000  0.002  0.001  0.000  0.000  0.000  0.000  0.004
   34  0.000  0.001  0.000  0.002  0.001  0.000  0.000  0.000  0.000  0.004
   35  0.000  0.001  0.000  0.002  0.001  0.000  0.000  0.000  0.000  0.004
   36  0.000  0.001  0.000  0.002  0.001  0.000  0.000  0.000  0.000  0.004
tot    0.026  0.011  0.065  0.034  0.175  0.001  0.436  0.002  0.058  0.808
 
band    98 # energy   -1.87507164 # occ.  1.00000000
 
ion      s     py     pz     px    dxy    dyz    dz2    dxz  x2-y2    tot
    1  0.000  0.000  0.000  0.000  0.000  0.000  0.011  0.000  0.033  0.044
    2  0.000  0.000  0.000  0.000  0.026  0.000  0.011  0.000  0.007  0.044
    3  0.000  0.000  0.000  0.000  0.026  0.000  0.011  0.000  0.007  0.044
    4  0.000  0.000  0.000  0.000  0.030  0.000  0.045  0.000  0.010  0.084
    5  0.000  0.000  0.000  0.000  0.026  0.000  0.011  0.000  0.007  0.044
    6  0.000  0.000  0.000  0.000  0.000  0.000  0.011  0.000  0.033  0.044
    7  0.000  0.000  0.000  0.000  0.030  0.000  0.045  0.000  0.010  0.084
    8  0.000  0.000  0.000  0.000  0.000  0.000  0.011  0.000  0.033  0.044
    9  0.000  0.000  0.000  0.000  0.030  0.000  0.045  0.000  0.010  0.084
   10  0.000  0.000  0.000  0.000  0.026  0.000  0.011  0.000  0.007  0.044
   11  0.000  0.000  0.000  0.000  0.030  0.000  0.045  0.000  0.010  0.084
   12  0.000  0.000  0.000  0.000  0.000  0.000  0.011  0.000  0.033  0.044
   13  0.001  0.001  0.004  0.004  0.000  0.000  0.000  0.000  0.000  0.010
   14  0.000  0.001  0.001  0.003  0.000  0.000  0.000  0.000  0.000  0.005
   15  0.000  0.001  0.001  0.003  0.000  0.000  0.000  0.000  0.000  0.005
   16  0.000  0.003  0.001  0.000  0.000  0.000  0.000  0.000  0.000  0.005
   17  0.000  0.003  0.001  0.000  0.000  0.000  0.000  0.000  0.000  0.005
   18  0.000  0.003  0.001  0.000  0.000  0.000  0.000  0.000  0.000  0.005
   19  0.000  0.003  0.001  0.000  0.000  0.000  0.000  0.000  0.000  0.005
   20  0.001  0.001  0.004  0.004  0.000  0.000  0.000  0.000  0.000  0.010
   21  0.000  0.001  0.001  0.003  0.000  0.000  0.000  0.000  0.000  0.005
   22  0.000  0.001  0.001  0.003  0.000  0.000  0.000  0.000  0.000  0.005
   23  0.001  0.001  0.004  0.004  0.000  0.000  0.000  0.000  0.000  0.010
   24  0.001  0.001  0.004  0.004  0.000  0.000  0.000  0.000  0.000  0.010
   25  0.000  0.001  0.001  0.003  0.000  0.000  0.000  0.000  0.000  0.005
   26  0.000  0.001  0.001  0.003  0.000  0.000  0.000  0.000  0.000  0.005
   27  0.001  0.001  0.004  0.004  0.000  0.000  0.000  0.000  0.000  0.010
   28  0.001  0.001  0.004  0.004  0.000  0.000  0.000  0.000  0.000  0.010
   29  0.000  0.003  0.001  0.000  0.000  0.000  0.000  0.000  0.000  0.005
   30  0.000  0.003  0.001  0.000  0.000  0.000  0.000  0.000  0.000  0.005
   31  0.000  0.003  0.001  0.000  0.000  0.000  0.000  0.000  0.000  0.005
   32  0.000  0.003  0.001  0.000  0.000  0.000  0.000  0.000  0.000  0.005
   33  0.000  0.001  0.001  0.003  0.000  0.000  0.000  0.000  0.000  0.005
   34  0.000  0.001  0.001  0.003  0.000  0.000  0.000  0.000  0.000  0.005
   35  0.001  0.001  0.004  0.004  0.000  0.000  0.000  0.000  0.000  0.010
   36  0.001  0.001  0.004  0.004  0.000  0.000  0.000  0.000  0.000  0.010
tot    0.010  0.043  0.045  0.052  0.225  0.002  0.268  0.003  0.200  0.847
 
band    99 # energy   -1.87483315 # occ.  1.00000000
 
ion      s     py     pz     px    dxy    dyz    dz2    dxz  x2-y2    tot
    1  0.000  0.000  0.000  0.000  0.037  0.000  0.033  0.000  0.000  0.071
    2  0.000  0.000  0.000  0.000  0.011  0.000  0.033  0.000  0.026  0.071
    3  0.000  0.000  0.000  0.000  0.011  0.000  0.033  0.000  0.026  0.071
    4  0.000  0.000  0.000  0.000  0.008  0.000  0.000  0.000  0.023  0.031
    5  0.000  0.000  0.000  0.000  0.011  0.000  0.033  0.000  0.026  0.071
    6  0.000  0.000  0.000  0.000  0.037  0.000  0.033  0.000  0.000  0.071
    7  0.000  0.000  0.000  0.000  0.008  0.000  0.000  0.000  0.023  0.031
    8  0.000  0.000  0.000  0.000  0.037  0.000  0.033  0.000  0.000  0.071
    9  0.000  0.000  0.000  0.000  0.008  0.000  0.000  0.000  0.023  0.031
   10  0.000  0.000  0.000  0.000  0.011  0.000  0.033  0.000  0.026  0.071
   11  0.000  0.000  0.000  0.000  0.008  0.000  0.000  0.000  0.023  0.031
   12  0.000  0.000  0.000  0.000  0.037  0.000  0.033  0.000  0.000  0.071
   13  0.000  0.002  0.000  0.001  0.000  0.000  0.000  0.000  0.000  0.004
   14  0.001  0.003  0.003  0.001  0.000  0.000  0.000  0.000  0.000  0.008
   15  0.001  0.003  0.003  0.001  0.000  0.000  0.000  0.000  0.000  0.008
   16  0.001  0.000  0.003  0.004  0.000  0.000  0.000  0.000  0.000  0.008
   17  0.001  0.000  0.003  0.004  0.000  0.000  0.000  0.000  0.000  0.008
   18  0.001  0.000  0.003  0.004  0.000  0.000  0.000  0.000  0.000  0.008
   19  0.001  0.000  0.003  0.004  0.000  0.000  0.000  0.000  0.000  0.008
   20  0.000  0.002  0.000  0.001  0.000  0.000  0.000  0.000  0.000  0.004
   21  0.001  0.003  0.003  0.001  0.000  0.000  0.000  0.000  0.000  0.008
   22  0.001  0.003  0.003  0.001  0.000  0.000  0.000  0.000  0.000  0.008
   23  0.000  0.002  0.000  0.001  0.000  0.000  0.000  0.000  0.000  0.004
   24  0.000  0.002  0.000  0.001  0.000  0.000  0.000  0.000  0.000  0.004
   25  0.001  0.003  0.003  0.001  0.000  0.000  0.000  0.000  0.000  0.008
   26  0.001  0.003  0.003  0.001  0.000  0.000  0.000  0.000  0.000  0.008
   27  0.000  0.002  0.000  0.001  0.000  0.000  0.000  0.000  0.000  0.004
   28  0.000  0.002  0.000  0.001  0.000  0.000  0.000  0.000  0.000  0.004
   29  0.001  0.000  0.003  0.004  0.000  0.000  0.000  0.000  0.000  0.008
   30  0.001  0.000  0.003  0.004  0.000  0.000  0.000  0.000  0.000  0.008
   31  0.001  0.000  0.003  0.004  0.000  0.000  0.000  0.000  0.000  0.008
   32  0.001  0.000  0.003  0.004  0.000  0.000  0.000  0.000  0.000  0.008
   33  0.001  0.003  0.003  0.001  0.000  0.000  0.000  0.000  0.000  0.008
   34  0.001  0.003  0.003  0.001  0.000  0.000  0.000  0.000  0.000  0.008
   35  0.000  0.002  0.000  0.001  0.000  0.000  0.000  0.000  0.000  0.004
   36  0.000  0.002  0.000  0.001  0.000  0.000  0.000  0.000  0.000  0.004
tot    0.010  0.043  0.045  0.052  0.225  0.002  0.268  0.003  0.200  0.847
 
band   100 # energy   -1.81641976 # occ.  1.00000000
 
ion      s     py     pz     px    dxy    dyz    dz2    dxz  x2-y2    tot
    1  0.000  0.002  0.000  0.006  0.009  0.000  0.023  0.000  0.003  0.043
    2  0.000  0.002  0.000  0.006  0.009  0.000  0.023  0.000  0.003  0.043
    3  0.000  0.002  0.000  0.006  0.009  0.000  0.023  0.000  0.003  0.043
    4  0.000  0.002  0.000  0.006  0.009  0.000  0.023  0.000  0.003  0.043
    5  0.000  0.002  0.000  0.006  0.009  0.000  0.023  0.000  0.003  0.043
    6  0.000  0.002  0.000  0.006  0.009  0.000  0.023  0.000  0.003  0.043
    7  0.000  0.002  0.000  0.006  0.009  0.000  0.023  0.000  0.003  0.043
    8  0.000  0.002  0.000  0.006  0.009  0.000  0.023  0.000  0.003  0.043
    9  0.000  0.002  0.000  0.006  0.009  0.000  0.023  0.000  0.003  0.043
   10  0.000  0.002  0.000  0.006  0.009  0.000  0.023  0.000  0.003  0.043
   11  0.000  0.002  0.000  0.006  0.009  0.000  0.023  0.000  0.003  0.043
   12  0.000  0.002  0.000  0.006  0.009  0.000  0.023  0.000  0.003  0.043
   13  0.000  0.000  0.006  0.000  0.000  0.000  0.000  0.000  0.000  0.008
   14  0.000  0.000  0.006  0.000  0.000  0.000  0.000  0.000  0.000  0.008
   15  0.000  0.000  0.006  0.000  0.000  0.000  0.000  0.000  0.000  0.008
   16  0.000  0.000  0.006  0.000  0.000  0.000  0.000  0.000  0.000  0.008
   17  0.000  0.000  0.006  0.000  0.000  0.000  0.000  0.000  0.000  0.008
   18  0.000  0.000  0.006  0.000  0.000  0.000  0.000  0.000  0.000  0.008
   19  0.000  0.000  0.006  0.000  0.000  0.000  0.000  0.000  0.000  0.008
   20  0.000  0.000  0.006  0.000  0.000  0.000  0.000  0.000  0.000  0.008
   21  0.000  0.000  0.006  0.000  0.000  0.000  0.000  0.000  0.000  0.008
   22  0.000  0.000  0.006  0.000  0.000  0.000  0.000  0.000  0.000  0.008
   23  0.000  0.000  0.006  0.000  0.000  0.000  0.000  0.000  0.000  0.008
   24  0.000  0.000  0.006  0.000  0.000  0.000  0.000  0.000  0.000  0.008
   25  0.000  0.000  0.006  0.000  0.000  0.000  0.000  0.000  0.000  0.008
   26  0.000  0.000  0.006  0.000  0.000  0.000  0.000  0.000  0.000  0.008
   27  0.000  0.000  0.006  0.000  0.000  0.000  0.000  0.000  0.000  0.008
   28  0.000  0.000  0.006  0.000  0.000  0.000  0.000  0.000  0.000  0.008
   29  0.000  0.000  0.006  0.000  0.000  0.000  0.000  0.000  0.000  0.008
   30  0.000  0.000  0.006  0.000  0.000  0.000  0.000  0.000  0.000  0.008
   31  0.000  0.000  0.006  0.000  0.000  0.000  0.000  0.000  0.000  0.008
   32  0.000  0.000  0.006  0.000  0.000  0.000  0.000  0.000  0.000  0.008
   33  0.000  0.000  0.006  0.000  0.000  0.000  0.000  0.000  0.000  0.008
   34  0.000  0.000  0.006  0.000  0.000  0.000  0.000  0.000  0.000  0.008
   35  0.000  0.000  0.006  0.000  0.000  0.000  0.000  0.000  0.000  0.008
   36  0.000  0.000  0.006  0.000  0.000  0.000  0.000  0.000  0.000  0.008
tot    0.010  0.024  0.155  0.073  0.117  0.001  0.274  0.002  0.039  0.695
 
band   101 # energy   -1.80850040 # occ.  1.00000000
 
ion      s     py     pz     px    dxy    dyz    dz2    dxz  x2-y2    tot
    1  0.000  0.004  0.000  0.001  0.002  0.000  0.000  0.000  0.006  0.013
    2  0.000  0.004  0.000  0.001  0.002  0.000  0.000  0.000  0.006  0.013
    3  0.000  0.004  0.000  0.001  0.002  0.000  0.000  0.000  0.006  0.013
    4  0.000  0.004  0.000  0.001  0.002  0.000  0.000  0.000  0.006  0.013
    5  0.000  0.004  0.000  0.001  0.002  0.000  0.000  0.000  0.006  0.013
    6  0.000  0.004  0.000  0.001  0.002  0.000  0.000  0.000  0.006  0.013
    7  0.000  0.004  0.000  0.001  0.002  0.000  0.000  0.000  0.006  0.013
    8  0.000  0.004  0.000  0.001  0.002  0.000  0.000  0.000  0.006  0.013
    9  0.000  0.004  0.000  0.001  0.002  0.000  0.000  0.000  0.006  0.013
   10  0.000  0.004  0.000  0.001  0.002  0.000  0.000  0.000  0.006  0.013
   11  0.000  0.004  0.000  0.001  0.002  0.000  0.000  0.000  0.006  0.013
   12  0.000  0.004  0.000  0.001  0.002  0.000  0.000  0.000  0.006  0.013
   13  0.000  0.017  0.000  0.006  0.000  0.000  0.000  0.000  0.000  0.023
   14  0.000  0.017  0.000  0.006  0.000  0.000  0.000  0.000  0.000  0.023
   15  0.000  0.017  0.000  0.006  0.000  0.000  0.000  0.000  0.000  0.023
   16  0.000  0.017  0.000  0.006  0.000  0.000  0.000  0.000  0.000  0.023
   17  0.000  0.017  0.000  0.006  0.000  0.000  0.000  0.000  0.000  0.023
   18  0.000  0.017  0.000  0.006  0.000  0.000  0.000  0.000  0.000  0.023
   19  0.000  0.017  0.000  0.006  0.000  0.000  0.000  0.000  0.000  0.023
   20  0.000  0.017  0.000  0.006  0.000  0.000  0.000  0.000  0.000  0.023
   21  0.000  0.017  0.000  0.006  0.000  0.000  0.000  0.000  0.000  0.023
   22  0.000  0.017  0.000  0.006  0.000  0.000  0.000  0.000  0.000  0.023
   23  0.000  0.017  0.000  0.006  0.000  0.000  0.000  0.000  0.000  0.023
   24  0.000  0.017  0.000  0.006  0.000  0.000  0.000  0.000  0.000  0.023
   25  0.000  0.017  0.000  0.006  0.000  0.000  0.000  0.000  0.000  0.023
   26  0.000  0.017  0.000  0.006  0.000  0.000  0.000  0.000  0.000  0.023
   27  0.000  0.017  0.000  0.006  0.000  0.000  0.000  0.000  0.000  0.023
   28  0.000  0.017  0.000  0.006  0.000  0.000  0.000  0.000  0.000  0.023
   29  0.000  0.017  0.000  0.006  0.000  0.000  0.000  0.000  0.000  0.023
   30  0.000  0.017  0.000  0.006  0.000  0.000  0.000  0.000  0.000  0.023
   31  0.000  0.017  0.000  0.006  0.000  0.000  0.000  0.000  0.000  0.023
   32  0.000  0.017  0.000  0.006  0.000  0.000  0.000  0.000  0.000  0.023
   33  0.000  0.017  0.000  0.006  0.000  0.000  0.000  0.000  0.000  0.023
   34  0.000  0.017  0.000  0.006  0.000  0.000  0.000  0.000  0.000  0.023
   35  0.000  0.017  0.000  0.006  0.000  0.000  0.000  0.000  0.000  0.023
   36  0.000  0.017  0.000  0.006  0.000  0.000  0.000  0.000  0.000  0.023
tot    0.000  0.466  0.000  0.155  0.022  0.003  0.000  0.001  0.067  0.715
 
band   102 # energy   -1.74376364 # occ.  1.00000000
 
ion      s     py     pz     px    dxy    dyz    dz2    dxz  x2-y2    tot
    1  0.001  0.000  0.000  0.006  0.006  0.000  0.024  0.000  0.036  0.074
    2  0.000  0.000  0.000  0.000  0.005  0.000  0.014  0.000  0.001  0.020
    3  0.001  0.004  0.000  0.003  0.042  0.000  0.023  0.000  0.001  0.074
    4  0.000  0.002  0.000  0.001  0.015  0.000  0.000  0.000  0.047  0.064
    5  0.000  0.000  0.000  0.000  0.005  0.000  0.014  0.000  0.001  0.020
    6  0.000  0.000  0.000  0.000  0.000  0.000  0.014  0.000  0.005  0.020
    7  0.000  0.000  0.000  0.000  0.003  0.000  0.000  0.000  0.009  0.012
    8  0.000  0.000  0.000  0.000  0.000  0.000  0.014  0.000  0.005  0.020
    9  0.000  0.000  0.000  0.000  0.003  0.000  0.000  0.000  0.009  0.012
   10  0.001  0.004  0.000  0.003  0.042  0.000  0.023  0.000  0.001  0.074
   11  0.000  0.002  0.000  0.001  0.015  0.000  0.000  0.000  0.047  0.064
   12  0.001  0.000  0.000  0.006  0.006  0.000  0.024  0.000  0.036  0.074
   13  0.000  0.002  0.000  0.001  0.000  0.000  0.000  0.000  0.000  0.003
   14  0.000  0.002  0.004  0.017  0.000  0.000  0.000  0.000  0.000  0.023
   15  0.000  0.002  0.004  0.017  0.000  0.000  0.000  0.000  0.000  0.023
   16  0.000  0.002  0.001  0.000  0.000  0.000  0.000  0.000  0.000  0.004
   17  0.000  0.002  0.001  0.000  0.000  0.000  0.000  0.000  0.000  0.004
   18  0.000  0.008  0.004  0.011  0.000  0.000  0.000  0.000  0.000  0.023
   19  0.000  0.008  0.004  0.011  0.000  0.000  0.000  0.000  0.000  0.023
   20  0.000  0.002  0.000  0.001  0.000  0.000  0.000  0.000  0.000  0.003
   21  0.000  0.002  0.004  0.017  0.000  0.000  0.000  0.000  0.000  0.023
   22  0.000  0.002  0.004  0.017  0.000  0.000  0.000  0.000  0.000  0.023
   23  0.000  0.006  0.000  0.002  0.000  0.000  0.000  0.000  0.000  0.009
   24  0.000  0.006  0.000  0.002  0.000  0.000  0.000  0.000  0.000  0.009
   25  0.000  0.001  0.001  0.001  0.000  0.000  0.000  0.000  0.000  0.004
   26  0.000  0.001  0.001  0.001  0.000  0.000  0.000  0.000  0.000  0.004
   27  0.000  0.002  0.000  0.001  0.000  0.000  0.000  0.000  0.000  0.003
   28  0.000  0.002  0.000  0.001  0.000  0.000  0.000  0.000  0.000  0.003
   29  0.000  0.002  0.001  0.000  0.000  0.000  0.000  0.000  0.000  0.004
   30  0.000  0.008  0.004  0.011  0.000  0.000  0.000  0.000  0.000  0.023
   31  0.000  0.008  0.004  0.011  0.000  0.000  0.000  0.000  0.000  0.023
   32  0.000  0.002  0.001  0.000  0.000  0.000  0.000  0.000  0.000  0.004
   33  0.000  0.001  0.001  0.001  0.000  0.000  0.000  0.000  0.000  0.004
   34  0.000  0.001  0.001  0.001  0.000  0.000  0.000  0.000  0.000  0.004
   35  0.000  0.006  0.000  0.002  0.000  0.000  0.000  0.000  0.000  0.009
   36  0.000  0.006  0.000  0.002  0.000  0.000  0.000  0.000  0.000  0.009
tot    0.006  0.097  0.039  0.145  0.146  0.003  0.151  0.002  0.198  0.787
 
band   103 # energy   -1.74364611 # occ.  1.00000000
 
ion      s     py     pz     px    dxy    dyz    dz2    dxz  x2-y2    tot
    1  0.000  0.003  0.000  0.000  0.036  0.000  0.008  0.000  0.020  0.067
    2  0.000  0.000  0.000  0.000  0.000  0.000  0.005  0.000  0.009  0.015
    3  0.000  0.000  0.000  0.004  0.001  0.000  0.008  0.000  0.055  0.068
    4  0.001  0.002  0.000  0.006  0.027  0.000  0.031  0.000  0.009  0.077
    5  0.000  0.000  0.000  0.000  0.000  0.000  0.005  0.000  0.009  0.015
    6  0.000  0.000  0.000  0.000  0.005  0.000  0.005  0.000  0.005  0.015
    7  0.000  0.000  0.000  0.000  0.002  0.000  0.019  0.000  0.001  0.023
    8  0.000  0.000  0.000  0.000  0.005  0.000  0.005  0.000  0.005  0.015
    9  0.000  0.000  0.000  0.000  0.002  0.000  0.019  0.000  0.001  0.023
   10  0.000  0.000  0.000  0.004  0.001  0.000  0.008  0.000  0.055  0.068
   11  0.001  0.002  0.000  0.006  0.027  0.000  0.031  0.000  0.009  0.077
   12  0.000  0.003  0.000  0.000  0.036  0.000  0.008  0.000  0.020  0.067
   13  0.000  0.006  0.005  0.018  0.000  0.000  0.000  0.000  0.000  0.029
   14  0.000  0.006  0.001  0.002  0.000  0.000  0.000  0.000  0.000  0.009
   15  0.000  0.006  0.001  0.002  0.000  0.000  0.000  0.000  0.000  0.009
   16  0.000  0.004  0.000  0.002  0.000  0.000  0.000  0.000  0.000  0.007
   17  0.000  0.004  0.000  0.002  0.000  0.000  0.000  0.000  0.000  0.007
   18  0.000  0.000  0.001  0.008  0.000  0.000  0.000  0.000  0.000  0.010
   19  0.000  0.000  0.001  0.008  0.000  0.000  0.000  0.000  0.000  0.010
   20  0.000  0.006  0.005  0.018  0.000  0.000  0.000  0.000  0.000  0.029
   21  0.000  0.006  0.001  0.002  0.000  0.000  0.000  0.000  0.000  0.009
   22  0.000  0.006  0.001  0.002  0.000  0.000  0.000  0.000  0.000  0.009
   23  0.000  0.000  0.002  0.000  0.000  0.000  0.000  0.000  0.000  0.002
   24  0.000  0.000  0.002  0.000  0.000  0.000  0.000  0.000  0.000  0.002
   25  0.000  0.005  0.000  0.001  0.000  0.000  0.000  0.000  0.000  0.007
   26  0.000  0.005  0.000  0.001  0.000  0.000  0.000  0.000  0.000  0.007
   27  0.000  0.006  0.005  0.018  0.000  0.000  0.000  0.000  0.000  0.029
   28  0.000  0.006  0.005  0.018  0.000  0.000  0.000  0.000  0.000  0.029
   29  0.000  0.004  0.000  0.002  0.000  0.000  0.000  0.000  0.000  0.007
   30  0.000  0.000  0.001  0.008  0.000  0.000  0.000  0.000  0.000  0.010
   31  0.000  0.000  0.001  0.008  0.000  0.000  0.000  0.000  0.000  0.010
   32  0.000  0.004  0.000  0.002  0.000  0.000  0.000  0.000  0.000  0.007
   33  0.000  0.005  0.000  0.001  0.000  0.000  0.000  0.000  0.000  0.007
   34  0.000  0.005  0.000  0.001  0.000  0.000  0.000  0.000  0.000  0.007
   35  0.000  0.000  0.002  0.000  0.000  0.000  0.000  0.000  0.000  0.002
   36  0.000  0.000  0.002  0.000  0.000  0.000  0.000  0.000  0.000  0.002
tot    0.006  0.097  0.039  0.145  0.146  0.003  0.151  0.002  0.199  0.787
 
band   104 # energy   -1.74349466 # occ.  1.00000000
 
ion      s     py     pz     px    dxy    dyz    dz2    dxz  x2-y2    tot
    1  0.000  0.000  0.000  0.000  0.000  0.000  0.014  0.000  0.005  0.020
    2  0.001  0.004  0.000  0.003  0.042  0.000  0.024  0.000  0.001  0.074
    3  0.000  0.000  0.000  0.000  0.005  0.000  0.014  0.000  0.000  0.020
    4  0.000  0.000  0.000  0.000  0.003  0.000  0.000  0.000  0.009  0.012
    5  0.001  0.004  0.000  0.003  0.042  0.000  0.024  0.000  0.001  0.074
    6  0.001  0.000  0.000  0.006  0.006  0.000  0.023  0.000  0.036  0.074
    7  0.000  0.002  0.000  0.001  0.016  0.000  0.000  0.000  0.047  0.064
    8  0.001  0.000  0.000  0.006  0.006  0.000  0.023  0.000  0.036  0.074
    9  0.000  0.002  0.000  0.001  0.016  0.000  0.000  0.000  0.047  0.064
   10  0.000  0.000  0.000  0.000  0.005  0.000  0.014  0.000  0.000  0.020
   11  0.000  0.000  0.000  0.000  0.003  0.000  0.000  0.000  0.009  0.012
   12  0.000  0.000  0.000  0.000  0.000  0.000  0.014  0.000  0.005  0.020
   13  0.000  0.006  0.000  0.002  0.000  0.000  0.000  0.000  0.000  0.009
   14  0.000  0.001  0.001  0.001  0.000  0.000  0.000  0.000  0.000  0.004
   15  0.000  0.001  0.001  0.001  0.000  0.000  0.000  0.000  0.000  0.004
   16  0.000  0.008  0.004  0.011  0.000  0.000  0.000  0.000  0.000  0.023
   17  0.000  0.008  0.004  0.011  0.000  0.000  0.000  0.000  0.000  0.023
   18  0.000  0.002  0.001  0.000  0.000  0.000  0.000  0.000  0.000  0.004
   19  0.000  0.002  0.001  0.000  0.000  0.000  0.000  0.000  0.000  0.004
   20  0.000  0.006  0.000  0.002  0.000  0.000  0.000  0.000  0.000  0.009
   21  0.000  0.001  0.001  0.001  0.000  0.000  0.000  0.000  0.000  0.004
   22  0.000  0.001  0.001  0.001  0.000  0.000  0.000  0.000  0.000  0.004
   23  0.000  0.002  0.000  0.001  0.000  0.000  0.000  0.000  0.000  0.003
   24  0.000  0.002  0.000  0.001  0.000  0.000  0.000  0.000  0.000  0.003
   25  0.000  0.002  0.004  0.017  0.000  0.000  0.000  0.000  0.000  0.023
   26  0.000  0.002  0.004  0.017  0.000  0.000  0.000  0.000  0.000  0.023
   27  0.000  0.006  0.000  0.002  0.000  0.000  0.000  0.000  0.000  0.009
   28  0.000  0.006  0.000  0.002  0.000  0.000  0.000  0.000  0.000  0.009
   29  0.000  0.008  0.004  0.011  0.000  0.000  0.000  0.000  0.000  0.023
   30  0.000  0.002  0.001  0.000  0.000  0.000  0.000  0.000  0.000  0.004
   31  0.000  0.002  0.001  0.000  0.000  0.000  0.000  0.000  0.000  0.004
   32  0.000  0.008  0.004  0.011  0.000  0.000  0.000  0.000  0.000  0.023
   33  0.000  0.002  0.004  0.017  0.000  0.000  0.000  0.000  0.000  0.023
   34  0.000  0.002  0.004  0.017  0.000  0.000  0.000  0.000  0.000  0.023
   35  0.000  0.002  0.000  0.001  0.000  0.000  0.000  0.000  0.000  0.003
   36  0.000  0.002  0.000  0.001  0.000  0.000  0.000  0.000  0.000  0.003
tot    0.006  0.096  0.039  0.146  0.146  0.003  0.151  0.002  0.198  0.787
 
band   105 # energy   -1.74338075 # occ.  1.00000000
 
ion      s     py     pz     px    dxy    dyz    dz2    dxz  x2-y2    tot
    1  0.000  0.000  0.000  0.000  0.005  0.000  0.005  0.000  0.005  0.015
    2  0.000  0.000  0.000  0.004  0.001  0.000  0.008  0.000  0.055  0.068
    3  0.000  0.000  0.000  0.000  0.001  0.000  0.005  0.000  0.009  0.014
    4  0.000  0.000  0.000  0.000  0.002  0.000  0.019  0.000  0.001  0.022
    5  0.000  0.000  0.000  0.004  0.001  0.000  0.008  0.000  0.055  0.068
    6  0.000  0.003  0.000  0.000  0.036  0.000  0.008  0.000  0.019  0.068
    7  0.001  0.002  0.000  0.006  0.027  0.000  0.031  0.000  0.009  0.077
    8  0.000  0.003  0.000  0.000  0.036  0.000  0.008  0.000  0.019  0.068
    9  0.001  0.002  0.000  0.006  0.027  0.000  0.031  0.000  0.009  0.077
   10  0.000  0.000  0.000  0.000  0.001  0.000  0.005  0.000  0.009  0.014
   11  0.000  0.000  0.000  0.000  0.002  0.000  0.019  0.000  0.001  0.022
   12  0.000  0.000  0.000  0.000  0.005  0.000  0.005  0.000  0.005  0.015
   13  0.000  0.000  0.002  0.000  0.000  0.000  0.000  0.000  0.000  0.002
   14  0.000  0.005  0.000  0.001  0.000  0.000  0.000  0.000  0.000  0.007
   15  0.000  0.005  0.000  0.001  0.000  0.000  0.000  0.000  0.000  0.007
   16  0.000  0.000  0.001  0.008  0.000  0.000  0.000  0.000  0.000  0.009
   17  0.000  0.000  0.001  0.008  0.000  0.000  0.000  0.000  0.000  0.009
   18  0.000  0.004  0.000  0.002  0.000  0.000  0.000  0.000  0.000  0.007
   19  0.000  0.004  0.000  0.002  0.000  0.000  0.000  0.000  0.000  0.007
   20  0.000  0.000  0.002  0.000  0.000  0.000  0.000  0.000  0.000  0.002
   21  0.000  0.005  0.000  0.001  0.000  0.000  0.000  0.000  0.000  0.007
   22  0.000  0.005  0.000  0.001  0.000  0.000  0.000  0.000  0.000  0.007
   23  0.000  0.006  0.005  0.018  0.000  0.000  0.000  0.000  0.000  0.029
   24  0.000  0.006  0.005  0.018  0.000  0.000  0.000  0.000  0.000  0.029
   25  0.000  0.006  0.001  0.002  0.000  0.000  0.000  0.000  0.000  0.010
   26  0.000  0.006  0.001  0.002  0.000  0.000  0.000  0.000  0.000  0.010
   27  0.000  0.000  0.002  0.000  0.000  0.000  0.000  0.000  0.000  0.002
   28  0.000  0.000  0.002  0.000  0.000  0.000  0.000  0.000  0.000  0.002
   29  0.000  0.000  0.001  0.008  0.000  0.000  0.000  0.000  0.000  0.009
   30  0.000  0.004  0.000  0.002  0.000  0.000  0.000  0.000  0.000  0.007
   31  0.000  0.004  0.000  0.002  0.000  0.000  0.000  0.000  0.000  0.007
   32  0.000  0.000  0.001  0.008  0.000  0.000  0.000  0.000  0.000  0.009
   33  0.000  0.006  0.001  0.002  0.000  0.000  0.000  0.000  0.000  0.010
   34  0.000  0.006  0.001  0.002  0.000  0.000  0.000  0.000  0.000  0.010
   35  0.000  0.006  0.005  0.018  0.000  0.000  0.000  0.000  0.000  0.029
   36  0.000  0.006  0.005  0.018  0.000  0.000  0.000  0.000  0.000  0.029
tot    0.006  0.097  0.039  0.146  0.146  0.003  0.151  0.002  0.198  0.787
 
band   106 # energy   -1.40297553 # occ.  1.00000000
 
ion      s     py     pz     px    dxy    dyz    dz2    dxz  x2-y2    tot
    1  0.001  0.000  0.000  0.000  0.000  0.000  0.053  0.000  0.000  0.054
    2  0.001  0.000  0.000  0.000  0.000  0.000  0.053  0.000  0.000  0.054
    3  0.001  0.000  0.000  0.000  0.000  0.000  0.053  0.000  0.000  0.054
    4  0.001  0.000  0.000  0.000  0.000  0.000  0.053  0.000  0.000  0.054
    5  0.001  0.000  0.000  0.000  0.000  0.000  0.053  0.000  0.000  0.054
    6  0.001  0.000  0.000  0.000  0.000  0.000  0.053  0.000  0.000  0.054
    7  0.001  0.000  0.000  0.000  0.000  0.000  0.053  0.000  0.000  0.054
    8  0.001  0.000  0.000  0.000  0.000  0.000  0.053  0.000  0.000  0.054
    9  0.001  0.000  0.000  0.000  0.000  0.000  0.053  0.000  0.000  0.054
   10  0.001  0.000  0.000  0.000  0.000  0.000  0.053  0.000  0.000  0.054
   11  0.001  0.000  0.000  0.000  0.000  0.000  0.053  0.000  0.000  0.054
   12  0.001  0.000  0.000  0.000  0.000  0.000  0.053  0.000  0.000  0.054
   13  0.000  0.000  0.005  0.000  0.000  0.000  0.001  0.000  0.000  0.006
   14  0.000  0.000  0.005  0.000  0.000  0.000  0.001  0.000  0.000  0.006
   15  0.000  0.000  0.005  0.000  0.000  0.000  0.001  0.000  0.000  0.006
   16  0.000  0.000  0.005  0.000  0.000  0.000  0.001  0.000  0.000  0.006
   17  0.000  0.000  0.005  0.000  0.000  0.000  0.001  0.000  0.000  0.006
   18  0.000  0.000  0.005  0.000  0.000  0.000  0.001  0.000  0.000  0.006
   19  0.000  0.000  0.005  0.000  0.000  0.000  0.001  0.000  0.000  0.006
   20  0.000  0.000  0.005  0.000  0.000  0.000  0.001  0.000  0.000  0.006
   21  0.000  0.000  0.005  0.000  0.000  0.000  0.001  0.000  0.000  0.006
   22  0.000  0.000  0.005  0.000  0.000  0.000  0.001  0.000  0.000  0.006
   23  0.000  0.000  0.005  0.000  0.000  0.000  0.001  0.000  0.000  0.006
   24  0.000  0.000  0.005  0.000  0.000  0.000  0.001  0.000  0.000  0.006
   25  0.000  0.000  0.005  0.000  0.000  0.000  0.001  0.000  0.000  0.006
   26  0.000  0.000  0.005  0.000  0.000  0.000  0.001  0.000  0.000  0.006
   27  0.000  0.000  0.005  0.000  0.000  0.000  0.001  0.000  0.000  0.006
   28  0.000  0.000  0.005  0.000  0.000  0.000  0.001  0.000  0.000  0.006
   29  0.000  0.000  0.005  0.000  0.000  0.000  0.001  0.000  0.000  0.006
   30  0.000  0.000  0.005  0.000  0.000  0.000  0.001  0.000  0.000  0.006
   31  0.000  0.000  0.005  0.000  0.000  0.000  0.001  0.000  0.000  0.006
   32  0.000  0.000  0.005  0.000  0.000  0.000  0.001  0.000  0.000  0.006
   33  0.000  0.000  0.005  0.000  0.000  0.000  0.001  0.000  0.000  0.006
   34  0.000  0.000  0.005  0.000  0.000  0.000  0.001  0.000  0.000  0.006
   35  0.000  0.000  0.005  0.000  0.000  0.000  0.001  0.000  0.000  0.006
   36  0.000  0.000  0.005  0.000  0.000  0.000  0.001  0.000  0.000  0.006
tot    0.017  0.000  0.115  0.000  0.000  0.000  0.649  0.000  0.000  0.781
 
band   107 # energy   -1.11928747 # occ.  1.00000000
 
ion      s     py     pz     px    dxy    dyz    dz2    dxz  x2-y2    tot
    1  0.000  0.000  0.000  0.000  0.015  0.000  0.000  0.000  0.045  0.060
    2  0.000  0.000  0.000  0.000  0.059  0.000  0.000  0.000  0.000  0.060
    3  0.000  0.000  0.000  0.000  0.059  0.000  0.000  0.000  0.000  0.060
    4  0.000  0.000  0.000  0.000  0.015  0.000  0.000  0.000  0.044  0.060
    5  0.000  0.000  0.000  0.000  0.059  0.000  0.000  0.000  0.000  0.060
    6  0.000  0.000  0.000  0.000  0.015  0.000  0.000  0.000  0.045  0.060
    7  0.000  0.000  0.000  0.000  0.015  0.000  0.000  0.000  0.044  0.060
    8  0.000  0.000  0.000  0.000  0.015  0.000  0.000  0.000  0.045  0.060
    9  0.000  0.000  0.000  0.000  0.015  0.000  0.000  0.000  0.044  0.060
   10  0.000  0.000  0.000  0.000  0.059  0.000  0.000  0.000  0.000  0.060
   11  0.000  0.000  0.000  0.000  0.015  0.000  0.000  0.000  0.044  0.060
   12  0.000  0.000  0.000  0.000  0.015  0.000  0.000  0.000  0.045  0.060
   13  0.000  0.003  0.000  0.001  0.000  0.000  0.000  0.000  0.000  0.005
   14  0.000  0.000  0.000  0.005  0.000  0.000  0.000  0.000  0.000  0.005
   15  0.000  0.000  0.000  0.005  0.000  0.000  0.000  0.000  0.000  0.005
   16  0.000  0.004  0.000  0.001  0.000  0.000  0.000  0.000  0.000  0.005
   17  0.000  0.004  0.000  0.001  0.000  0.000  0.000  0.000  0.000  0.005
   18  0.000  0.004  0.000  0.001  0.000  0.000  0.000  0.000  0.000  0.005
   19  0.000  0.004  0.000  0.001  0.000  0.000  0.000  0.000  0.000  0.005
   20  0.000  0.003  0.000  0.001  0.000  0.000  0.000  0.000  0.000  0.005
   21  0.000  0.000  0.000  0.005  0.000  0.000  0.000  0.000  0.000  0.005
   22  0.000  0.000  0.000  0.005  0.000  0.000  0.000  0.000  0.000  0.005
   23  0.000  0.003  0.000  0.001  0.000  0.000  0.000  0.000  0.000  0.005
   24  0.000  0.003  0.000  0.001  0.000  0.000  0.000  0.000  0.000  0.005
   25  0.000  0.000  0.000  0.005  0.000  0.000  0.000  0.000  0.000  0.005
   26  0.000  0.000  0.000  0.005  0.000  0.000  0.000  0.000  0.000  0.005
   27  0.000  0.003  0.000  0.001  0.000  0.000  0.000  0.000  0.000  0.005
   28  0.000  0.003  0.000  0.001  0.000  0.000  0.000  0.000  0.000  0.005
   29  0.000  0.004  0.000  0.001  0.000  0.000  0.000  0.000  0.000  0.005
   30  0.000  0.004  0.000  0.001  0.000  0.000  0.000  0.000  0.000  0.005
   31  0.000  0.004  0.000  0.001  0.000  0.000  0.000  0.000  0.000  0.005
   32  0.000  0.004  0.000  0.001  0.000  0.000  0.000  0.000  0.000  0.005
   33  0.000  0.000  0.000  0.005  0.000  0.000  0.000  0.000  0.000  0.005
   34  0.000  0.000  0.000  0.005  0.000  0.000  0.000  0.000  0.000  0.005
   35  0.000  0.003  0.000  0.001  0.000  0.000  0.000  0.000  0.000  0.005
   36  0.000  0.003  0.000  0.001  0.000  0.000  0.000  0.000  0.000  0.005
tot    0.000  0.058  0.000  0.059  0.358  0.000  0.000  0.000  0.358  0.834
 
band   108 # energy   -1.11928161 # occ.  1.00000000
 
ion      s     py     pz     px    dxy    dyz    dz2    dxz  x2-y2    tot
    1  0.000  0.000  0.000  0.000  0.045  0.000  0.000  0.000  0.015  0.060
    2  0.000  0.000  0.000  0.000  0.000  0.000  0.000  0.000  0.059  0.060
    3  0.000  0.000  0.000  0.000  0.000  0.000  0.000  0.000  0.059  0.060
    4  0.000  0.000  0.000  0.000  0.044  0.000  0.000  0.000  0.015  0.060
    5  0.000  0.000  0.000  0.000  0.000  0.000  0.000  0.000  0.059  0.060
    6  0.000  0.000  0.000  0.000  0.045  0.000  0.000  0.000  0.015  0.060
    7  0.000  0.000  0.000  0.000  0.044  0.000  0.000  0.000  0.015  0.060
    8  0.000  0.000  0.000  0.000  0.045  0.000  0.000  0.000  0.015  0.060
    9  0.000  0.000  0.000  0.000  0.044  0.000  0.000  0.000  0.015  0.060
   10  0.000  0.000  0.000  0.000  0.000  0.000  0.000  0.000  0.059  0.060
   11  0.000  0.000  0.000  0.000  0.044  0.000  0.000  0.000  0.015  0.060
   12  0.000  0.000  0.000  0.000  0.045  0.000  0.000  0.000  0.015  0.060
   13  0.000  0.001  0.000  0.004  0.000  0.000  0.000  0.000  0.000  0.005
   14  0.000  0.005  0.000  0.000  0.000  0.000  0.000  0.000  0.000  0.005
   15  0.000  0.005  0.000  0.000  0.000  0.000  0.000  0.000  0.000  0.005
   16  0.000  0.001  0.000  0.004  0.000  0.000  0.000  0.000  0.000  0.005
   17  0.000  0.001  0.000  0.004  0.000  0.000  0.000  0.000  0.000  0.005
   18  0.000  0.001  0.000  0.004  0.000  0.000  0.000  0.000  0.000  0.005
   19  0.000  0.001  0.000  0.004  0.000  0.000  0.000  0.000  0.000  0.005
   20  0.000  0.001  0.000  0.004  0.000  0.000  0.000  0.000  0.000  0.005
   21  0.000  0.005  0.000  0.000  0.000  0.000  0.000  0.000  0.000  0.005
   22  0.000  0.005  0.000  0.000  0.000  0.000  0.000  0.000  0.000  0.005
   23  0.000  0.001  0.000  0.004  0.000  0.000  0.000  0.000  0.000  0.005
   24  0.000  0.001  0.000  0.004  0.000  0.000  0.000  0.000  0.000  0.005
   25  0.000  0.005  0.000  0.000  0.000  0.000  0.000  0.000  0.000  0.005
   26  0.000  0.005  0.000  0.000  0.000  0.000  0.000  0.000  0.000  0.005
   27  0.000  0.001  0.000  0.004  0.000  0.000  0.000  0.000  0.000  0.005
   28  0.000  0.001  0.000  0.004  0.000  0.000  0.000  0.000  0.000  0.005
   29  0.000  0.001  0.000  0.004  0.000  0.000  0.000  0.000  0.000  0.005
   30  0.000  0.001  0.000  0.004  0.000  0.000  0.000  0.000  0.000  0.005
   31  0.000  0.001  0.000  0.004  0.000  0.000  0.000  0.000  0.000  0.005
   32  0.000  0.001  0.000  0.004  0.000  0.000  0.000  0.000  0.000  0.005
   33  0.000  0.005  0.000  0.000  0.000  0.000  0.000  0.000  0.000  0.005
   34  0.000  0.005  0.000  0.000  0.000  0.000  0.000  0.000  0.000  0.005
   35  0.000  0.001  0.000  0.004  0.000  0.000  0.000  0.000  0.000  0.005
   36  0.000  0.001  0.000  0.004  0.000  0.000  0.000  0.000  0.000  0.005
tot    0.000  0.058  0.000  0.059  0.358  0.000  0.000  0.000  0.358  0.834
 
band   109 # energy    0.29664398 # occ.  0.00000000
 
ion      s     py     pz     px    dxy    dyz    dz2    dxz  x2-y2    tot
    1  0.006  0.000  0.000  0.000  0.000  0.000  0.098  0.000  0.000  0.104
    2  0.006  0.000  0.000  0.000  0.000  0.000  0.098  0.000  0.000  0.104
    3  0.006  0.000  0.000  0.000  0.000  0.000  0.097  0.000  0.000  0.103
    4  0.000  0.000  0.000  0.000  0.000  0.000  0.000  0.000  0.000  0.000
    5  0.006  0.000  0.000  0.000  0.000  0.000  0.098  0.000  0.000  0.104
    6  0.006  0.000  0.000  0.000  0.000  0.000  0.098  0.000  0.000  0.104
    7  0.000  0.000  0.000  0.000  0.000  0.000  0.000  0.000  0.000  0.000
    8  0.006  0.000  0.000  0.000  0.000  0.000  0.098  0.000  0.000  0.104
    9  0.000  0.000  0.000  0.000  0.000  0.000  0.000  0.000  0.000  0.000
   10  0.006  0.000  0.000  0.000  0.000  0.000  0.097  0.000  0.000  0.103
   11  0.000  0.000  0.000  0.000  0.000  0.000  0.000  0.000  0.000  0.000
   12  0.006  0.000  0.000  0.000  0.000  0.000  0.098  0.000  0.000  0.104
   13  0.000  0.002  0.000  0.001  0.000  0.000  0.000  0.000  0.000  0.003
   14  0.000  0.002  0.000  0.001  0.000  0.000  0.000  0.000  0.000  0.003
   15  0.000  0.002  0.000  0.001  0.000  0.000  0.000  0.000  0.000  0.003
   16  0.000  0.000  0.000  0.003  0.000  0.000  0.000  0.000  0.000  0.003
   17  0.000  0.000  0.000  0.003  0.000  0.000  0.000  0.000  0.000  0.003
   18  0.000  0.000  0.000  0.003  0.000  0.000  0.000  0.000  0.000  0.003
   19  0.000  0.000  0.000  0.003  0.000  0.000  0.000  0.000  0.000  0.003
   20  0.000  0.002  0.000  0.001  0.000  0.000  0.000  0.000  0.000  0.003
   21  0.000  0.002  0.000  0.001  0.000  0.000  0.000  0.000  0.000  0.003
   22  0.000  0.002  0.000  0.001  0.000  0.000  0.000  0.000  0.000  0.003
   23  0.000  0.002  0.000  0.001  0.000  0.000  0.000  0.000  0.000  0.003
   24  0.000  0.002  0.000  0.001  0.000  0.000  0.000  0.000  0.000  0.003
   25  0.000  0.002  0.000  0.001  0.000  0.000  0.000  0.000  0.000  0.003
   26  0.000  0.002  0.000  0.001  0.000  0.000  0.000  0.000  0.000  0.003
   27  0.000  0.002  0.000  0.001  0.000  0.000  0.000  0.000  0.000  0.003
   28  0.000  0.002  0.000  0.001  0.000  0.000  0.000  0.000  0.000  0.003
   29  0.000  0.000  0.000  0.003  0.000  0.000  0.000  0.000  0.000  0.003
   30  0.000  0.000  0.000  0.003  0.000  0.000  0.000  0.000  0.000  0.003
   31  0.000  0.000  0.000  0.003  0.000  0.000  0.000  0.000  0.000  0.003
   32  0.000  0.000  0.000  0.003  0.000  0.000  0.000  0.000  0.000  0.003
   33  0.000  0.002  0.000  0.001  0.000  0.000  0.000  0.000  0.000  0.003
   34  0.000  0.002  0.000  0.001  0.000  0.000  0.000  0.000  0.000  0.003
   35  0.000  0.002  0.000  0.001  0.000  0.000  0.000  0.000  0.000  0.003
   36  0.000  0.002  0.000  0.001  0.000  0.000  0.000  0.000  0.000  0.003
tot    0.049  0.031  0.000  0.030  0.002  0.001  0.780  0.002  0.002  0.897
 
band   110 # energy    0.29671432 # occ.  0.00000000
 
ion      s     py     pz     px    dxy    dyz    dz2    dxz  x2-y2    tot
    1  0.002  0.000  0.000  0.000  0.000  0.000  0.032  0.000  0.000  0.034
    2  0.002  0.000  0.000  0.000  0.000  0.000  0.033  0.000  0.000  0.035
    3  0.002  0.000  0.000  0.000  0.000  0.000  0.033  0.000  0.000  0.035
    4  0.008  0.000  0.000  0.000  0.000  0.000  0.130  0.000  0.000  0.138
    5  0.002  0.000  0.000  0.000  0.000  0.000  0.033  0.000  0.000  0.035
    6  0.002  0.000  0.000  0.000  0.000  0.000  0.032  0.000  0.000  0.034
    7  0.008  0.000  0.000  0.000  0.000  0.000  0.130  0.000  0.000  0.138
    8  0.002  0.000  0.000  0.000  0.000  0.000  0.032  0.000  0.000  0.034
    9  0.008  0.000  0.000  0.000  0.000  0.000  0.130  0.000  0.000  0.138
   10  0.002  0.000  0.000  0.000  0.000  0.000  0.033  0.000  0.000  0.035
   11  0.008  0.000  0.000  0.000  0.000  0.000  0.130  0.000  0.000  0.138
   12  0.002  0.000  0.000  0.000  0.000  0.000  0.032  0.000  0.000  0.034
   13  0.000  0.001  0.000  0.002  0.000  0.000  0.000  0.000  0.000  0.003
   14  0.000  0.001  0.000  0.002  0.000  0.000  0.000  0.000  0.000  0.003
   15  0.000  0.001  0.000  0.002  0.000  0.000  0.000  0.000  0.000  0.003
   16  0.000  0.003  0.000  0.000  0.000  0.000  0.000  0.000  0.000  0.003
   17  0.000  0.003  0.000  0.000  0.000  0.000  0.000  0.000  0.000  0.003
   18  0.000  0.003  0.000  0.000  0.000  0.000  0.000  0.000  0.000  0.003
   19  0.000  0.003  0.000  0.000  0.000  0.000  0.000  0.000  0.000  0.003
   20  0.000  0.001  0.000  0.002  0.000  0.000  0.000  0.000  0.000  0.003
   21  0.000  0.001  0.000  0.002  0.000  0.000  0.000  0.000  0.000  0.003
   22  0.000  0.001  0.000  0.002  0.000  0.000  0.000  0.000  0.000  0.003
   23  0.000  0.001  0.000  0.002  0.000  0.000  0.000  0.000  0.000  0.003
   24  0.000  0.001  0.000  0.002  0.000  0.000  0.000  0.000  0.000  0.003
   25  0.000  0.001  0.000  0.002  0.000  0.000  0.000  0.000  0.000  0.003
   26  0.000  0.001  0.000  0.002  0.000  0.000  0.000  0.000  0.000  0.003
   27  0.000  0.001  0.000  0.002  0.000  0.000  0.000  0.000  0.000  0.003
   28  0.000  0.001  0.000  0.002  0.000  0.000  0.000  0.000  0.000  0.003
   29  0.000  0.003  0.000  0.000  0.000  0.000  0.000  0.000  0.000  0.003
   30  0.000  0.003  0.000  0.000  0.000  0.000  0.000  0.000  0.000  0.003
   31  0.000  0.003  0.000  0.000  0.000  0.000  0.000  0.000  0.000  0.003
   32  0.000  0.003  0.000  0.000  0.000  0.000  0.000  0.000  0.000  0.003
   33  0.000  0.001  0.000  0.002  0.000  0.000  0.000  0.000  0.000  0.003
   34  0.000  0.001  0.000  0.002  0.000  0.000  0.000  0.000  0.000  0.003
   35  0.000  0.001  0.000  0.002  0.000  0.000  0.000  0.000  0.000  0.003
   36  0.000  0.001  0.000  0.002  0.000  0.000  0.000  0.000  0.000  0.003
tot    0.049  0.031  0.000  0.030  0.002  0.001  0.780  0.002  0.002  0.897
 
band   111 # energy    0.49429115 # occ.  0.00000000
 
ion      s     py     pz     px    dxy    dyz    dz2    dxz  x2-y2    tot
    1  0.000  0.000  0.000  0.001  0.023  0.000  0.005  0.000  0.018  0.046
    2  0.000  0.001  0.000  0.000  0.002  0.000  0.005  0.000  0.039  0.046
    3  0.000  0.001  0.000  0.000  0.002  0.000  0.005  0.000  0.039  0.046
    4  0.001  0.000  0.000  0.001  0.012  0.000  0.018  0.000  0.004  0.037
    5  0.000  0.001  0.000  0.000  0.002  0.000  0.005  0.000  0.039  0.046
    6  0.000  0.000  0.000  0.001  0.023  0.000  0.005  0.000  0.018  0.046
    7  0.001  0.000  0.000  0.001  0.013  0.000  0.018  0.000  0.004  0.036
    8  0.000  0.000  0.000  0.001  0.023  0.000  0.005  0.000  0.018  0.046
    9  0.001  0.000  0.000  0.001  0.013  0.000  0.018  0.000  0.004  0.036
   10  0.000  0.001  0.000  0.000  0.002  0.000  0.005  0.000  0.039  0.046
   11  0.001  0.000  0.000  0.001  0.012  0.000  0.018  0.000  0.004  0.037
   12  0.000  0.000  0.000  0.001  0.023  0.000  0.005  0.000  0.018  0.046
   13  0.001  0.001  0.003  0.002  0.000  0.000  0.000  0.000  0.000  0.008
   14  0.000  0.003  0.001  0.004  0.000  0.000  0.000  0.000  0.000  0.009
   15  0.000  0.003  0.001  0.004  0.000  0.000  0.000  0.000  0.000  0.009
   16  0.000  0.007  0.001  0.000  0.000  0.001  0.000  0.000  0.000  0.009
   17  0.000  0.007  0.001  0.000  0.000  0.001  0.000  0.000  0.000  0.009
   18  0.000  0.007  0.001  0.000  0.000  0.001  0.000  0.000  0.000  0.009
   19  0.000  0.007  0.001  0.000  0.000  0.001  0.000  0.000  0.000  0.009
   20  0.001  0.001  0.003  0.002  0.000  0.000  0.000  0.000  0.000  0.008
   21  0.000  0.003  0.001  0.004  0.000  0.000  0.000  0.000  0.000  0.009
   22  0.000  0.003  0.001  0.004  0.000  0.000  0.000  0.000  0.000  0.009
   23  0.001  0.001  0.003  0.002  0.000  0.000  0.000  0.000  0.000  0.008
   24  0.001  0.001  0.003  0.002  0.000  0.000  0.000  0.000  0.000  0.008
   25  0.000  0.003  0.001  0.004  0.000  0.000  0.000  0.000  0.000  0.009
   26  0.000  0.003  0.001  0.004  0.000  0.000  0.000  0.000  0.000  0.009
   27  0.001  0.001  0.003  0.002  0.000  0.000  0.000  0.000  0.000  0.008
   28  0.001  0.001  0.003  0.002  0.000  0.000  0.000  0.000  0.000  0.008
   29  0.000  0.007  0.001  0.000  0.000  0.001  0.000  0.000  0.000  0.009
   30  0.000  0.007  0.001  0.000  0.000  0.001  0.000  0.000  0.000  0.009
   31  0.000  0.007  0.001  0.000  0.000  0.001  0.000  0.000  0.000  0.009
   32  0.000  0.007  0.001  0.000  0.000  0.001  0.000  0.000  0.000  0.009
   33  0.000  0.003  0.001  0.004  0.000  0.000  0.000  0.000  0.000  0.009
   34  0.000  0.003  0.001  0.004  0.000  0.000  0.000  0.000  0.000  0.009
   35  0.001  0.001  0.003  0.002  0.000  0.000  0.000  0.000  0.000  0.008
   36  0.001  0.001  0.003  0.002  0.000  0.000  0.000  0.000  0.000  0.008
tot    0.016  0.093  0.036  0.060  0.151  0.007  0.115  0.003  0.247  0.728
 
band   112 # energy    0.49433671 # occ.  0.00000000
 
ion      s     py     pz     px    dxy    dyz    dz2    dxz  x2-y2    tot
    1  0.001  0.001  0.000  0.000  0.002  0.000  0.014  0.000  0.023  0.040
    2  0.001  0.000  0.000  0.001  0.023  0.000  0.014  0.000  0.002  0.040
    3  0.001  0.000  0.000  0.001  0.023  0.000  0.014  0.000  0.002  0.040
    4  0.000  0.001  0.000  0.000  0.012  0.000  0.000  0.000  0.037  0.050
    5  0.001  0.000  0.000  0.001  0.023  0.000  0.014  0.000  0.002  0.040
    6  0.001  0.001  0.000  0.000  0.002  0.000  0.014  0.000  0.023  0.040
    7  0.000  0.001  0.000  0.000  0.012  0.000  0.000  0.000  0.037  0.050
    8  0.001  0.001  0.000  0.000  0.002  0.000  0.014  0.000  0.023  0.040
    9  0.000  0.001  0.000  0.000  0.012  0.000  0.000  0.000  0.037  0.050
   10  0.001  0.000  0.000  0.001  0.023  0.000  0.014  0.000  0.002  0.040
   11  0.000  0.001  0.000  0.000  0.012  0.000  0.000  0.000  0.037  0.050
   12  0.001  0.001  0.000  0.000  0.002  0.000  0.014  0.000  0.023  0.040
   13  0.000  0.007  0.000  0.002  0.000  0.001  0.000  0.000  0.000  0.010
   14  0.001  0.004  0.002  0.000  0.000  0.000  0.000  0.000  0.000  0.008
   15  0.001  0.004  0.002  0.000  0.000  0.000  0.000  0.000  0.000  0.008
   16  0.001  0.000  0.002  0.004  0.000  0.000  0.000  0.000  0.000  0.008
   17  0.001  0.000  0.002  0.004  0.000  0.000  0.000  0.000  0.000  0.008
   18  0.001  0.000  0.002  0.004  0.000  0.000  0.000  0.000  0.000  0.008
   19  0.001  0.000  0.002  0.004  0.000  0.000  0.000  0.000  0.000  0.008
   20  0.000  0.007  0.000  0.002  0.000  0.001  0.000  0.000  0.000  0.010
   21  0.001  0.004  0.002  0.000  0.000  0.000  0.000  0.000  0.000  0.008
   22  0.001  0.004  0.002  0.000  0.000  0.000  0.000  0.000  0.000  0.008
   23  0.000  0.007  0.000  0.002  0.000  0.001  0.000  0.000  0.000  0.010
   24  0.000  0.007  0.000  0.002  0.000  0.001  0.000  0.000  0.000  0.010
   25  0.001  0.004  0.002  0.000  0.000  0.000  0.000  0.000  0.000  0.008
   26  0.001  0.004  0.002  0.000  0.000  0.000  0.000  0.000  0.000  0.008
   27  0.000  0.007  0.000  0.002  0.000  0.001  0.000  0.000  0.000  0.010
   28  0.000  0.007  0.000  0.002  0.000  0.001  0.000  0.000  0.000  0.010
   29  0.001  0.000  0.002  0.004  0.000  0.000  0.000  0.000  0.000  0.008
   30  0.001  0.000  0.002  0.004  0.000  0.000  0.000  0.000  0.000  0.008
   31  0.001  0.000  0.002  0.004  0.000  0.000  0.000  0.000  0.000  0.008
   32  0.001  0.000  0.002  0.004  0.000  0.000  0.000  0.000  0.000  0.008
   33  0.001  0.004  0.002  0.000  0.000  0.000  0.000  0.000  0.000  0.008
   34  0.001  0.004  0.002  0.000  0.000  0.000  0.000  0.000  0.000  0.008
   35  0.000  0.007  0.000  0.002  0.000  0.001  0.000  0.000  0.000  0.010
   36  0.000  0.007  0.000  0.002  0.000  0.001  0.000  0.000  0.000  0.010
tot    0.016  0.093  0.036  0.060  0.151  0.007  0.115  0.003  0.247  0.728
 
band   113 # energy    0.67710448 # occ.  0.00000000
 
ion      s     py     pz     px    dxy    dyz    dz2    dxz  x2-y2    tot
    1  0.000  0.000  0.000  0.000  0.005  0.000  0.037  0.000  0.002  0.045
    2  0.001  0.000  0.000  0.001  0.030  0.000  0.003  0.000  0.010  0.045
    3  0.000  0.000  0.000  0.000  0.005  0.000  0.037  0.000  0.002  0.045
    4  0.000  0.000  0.000  0.000  0.005  0.000  0.038  0.000  0.002  0.045
    5  0.001  0.000  0.000  0.001  0.030  0.000  0.003  0.000  0.010  0.045
    6  0.001  0.000  0.000  0.001  0.030  0.000  0.003  0.000  0.010  0.045
    7  0.001  0.000  0.000  0.001  0.029  0.000  0.003  0.000  0.010  0.043
    8  0.001  0.000  0.000  0.001  0.030  0.000  0.003  0.000  0.010  0.045
    9  0.001  0.000  0.000  0.001  0.029  0.000  0.003  0.000  0.010  0.043
   10  0.000  0.000  0.000  0.000  0.005  0.000  0.037  0.000  0.002  0.045
   11  0.000  0.000  0.000  0.000  0.005  0.000  0.038  0.000  0.002  0.045
   12  0.000  0.000  0.000  0.000  0.005  0.000  0.037  0.000  0.002  0.045
   13  0.001  0.002  0.001  0.005  0.000  0.000  0.000  0.000  0.000  0.008
   14  0.001  0.002  0.001  0.005  0.000  0.000  0.000  0.000  0.000  0.008
   15  0.001  0.002  0.001  0.005  0.000  0.000  0.000  0.000  0.000  0.008
   16  0.001  0.001  0.002  0.004  0.000  0.000  0.001  0.000  0.000  0.009
   17  0.001  0.001  0.002  0.004  0.000  0.000  0.001  0.000  0.000  0.009
   18  0.001  0.002  0.001  0.005  0.000  0.000  0.000  0.000  0.000  0.008
   19  0.001  0.002  0.001  0.005  0.000  0.000  0.000  0.000  0.000  0.008
   20  0.001  0.002  0.001  0.005  0.000  0.000  0.000  0.000  0.000  0.008
   21  0.001  0.002  0.001  0.005  0.000  0.000  0.000  0.000  0.000  0.008
   22  0.001  0.002  0.001  0.005  0.000  0.000  0.000  0.000  0.000  0.008
   23  0.001  0.001  0.002  0.004  0.000  0.000  0.001  0.000  0.000  0.009
   24  0.001  0.001  0.002  0.004  0.000  0.000  0.001  0.000  0.000  0.009
   25  0.001  0.001  0.002  0.004  0.000  0.000  0.001  0.000  0.000  0.009
   26  0.001  0.001  0.002  0.004  0.000  0.000  0.001  0.000  0.000  0.009
   27  0.001  0.002  0.001  0.005  0.000  0.000  0.000  0.000  0.000  0.008
   28  0.001  0.002  0.001  0.005  0.000  0.000  0.000  0.000  0.000  0.008
   29  0.001  0.001  0.002  0.004  0.000  0.000  0.001  0.000  0.000  0.009
   30  0.001  0.002  0.001  0.005  0.000  0.000  0.000  0.000  0.000  0.008
   31  0.001  0.002  0.001  0.005  0.000  0.000  0.000  0.000  0.000  0.008
   32  0.001  0.001  0.002  0.004  0.000  0.000  0.001  0.000  0.000  0.009
   33  0.001  0.001  0.002  0.004  0.000  0.000  0.001  0.000  0.000  0.009
   34  0.001  0.001  0.002  0.004  0.000  0.000  0.001  0.000  0.000  0.009
   35  0.001  0.001  0.002  0.004  0.000  0.000  0.001  0.000  0.000  0.009
   36  0.001  0.001  0.002  0.004  0.000  0.000  0.001  0.000  0.000  0.009
tot    0.019  0.036  0.032  0.108  0.211  0.002  0.253  0.006  0.070  0.736
 
band   114 # energy    0.67815816 # occ.  0.00000000
 
ion      s     py     pz     px    dxy    dyz    dz2    dxz  x2-y2    tot
    1  0.001  0.000  0.000  0.001  0.030  0.000  0.003  0.000  0.010  0.045
    2  0.000  0.000  0.000  0.000  0.005  0.000  0.037  0.000  0.002  0.045
    3  0.001  0.000  0.000  0.001  0.030  0.000  0.003  0.000  0.010  0.045
    4  0.001  0.000  0.000  0.001  0.029  0.000  0.003  0.000  0.010  0.043
    5  0.000  0.000  0.000  0.000  0.005  0.000  0.037  0.000  0.002  0.045
    6  0.000  0.000  0.000  0.000  0.005  0.000  0.037  0.000  0.002  0.045
    7  0.000  0.000  0.000  0.000  0.005  0.000  0.038  0.000  0.002  0.045
    8  0.000  0.000  0.000  0.000  0.005  0.000  0.037  0.000  0.002  0.045
    9  0.000  0.000  0.000  0.000  0.005  0.000  0.038  0.000  0.002  0.045
   10  0.001  0.000  0.000  0.001  0.030  0.000  0.003  0.000  0.010  0.045
   11  0.001  0.000  0.000  0.001  0.029  0.000  0.003  0.000  0.010  0.043
   12  0.001  0.000  0.000  0.001  0.030  0.000  0.003  0.000  0.010  0.045
   13  0.001  0.001  0.002  0.004  0.000  0.000  0.001  0.000  0.000  0.009
   14  0.001  0.001  0.002  0.004  0.000  0.000  0.001  0.000  0.000  0.009
   15  0.001  0.001  0.002  0.004  0.000  0.000  0.001  0.000  0.000  0.009
   16  0.001  0.002  0.001  0.005  0.000  0.000  0.000  0.000  0.000  0.008
   17  0.001  0.002  0.001  0.005  0.000  0.000  0.000  0.000  0.000  0.008
   18  0.001  0.001  0.002  0.004  0.000  0.000  0.001  0.000  0.000  0.009
   19  0.001  0.001  0.002  0.004  0.000  0.000  0.001  0.000  0.000  0.009
   20  0.001  0.001  0.002  0.004  0.000  0.000  0.001  0.000  0.000  0.009
   21  0.001  0.001  0.002  0.004  0.000  0.000  0.001  0.000  0.000  0.009
   22  0.001  0.001  0.002  0.004  0.000  0.000  0.001  0.000  0.000  0.009
   23  0.001  0.002  0.001  0.005  0.000  0.000  0.000  0.000  0.000  0.008
   24  0.001  0.002  0.001  0.005  0.000  0.000  0.000  0.000  0.000  0.008
   25  0.001  0.002  0.001  0.005  0.000  0.000  0.000  0.000  0.000  0.008
   26  0.001  0.002  0.001  0.005  0.000  0.000  0.000  0.000  0.000  0.008
   27  0.001  0.001  0.002  0.004  0.000  0.000  0.001  0.000  0.000  0.009
   28  0.001  0.001  0.002  0.004  0.000  0.000  0.001  0.000  0.000  0.009
   29  0.001  0.002  0.001  0.005  0.000  0.000  0.000  0.000  0.000  0.008
   30  0.001  0.001  0.002  0.004  0.000  0.000  0.001  0.000  0.000  0.009
   31  0.001  0.001  0.002  0.004  0.000  0.000  0.001  0.000  0.000  0.009
   32  0.001  0.002  0.001  0.005  0.000  0.000  0.000  0.000  0.000  0.008
   33  0.001  0.002  0.001  0.005  0.000  0.000  0.000  0.000  0.000  0.008
   34  0.001  0.002  0.001  0.005  0.000  0.000  0.000  0.000  0.000  0.008
   35  0.001  0.002  0.001  0.005  0.000  0.000  0.000  0.000  0.000  0.008
   36  0.001  0.002  0.001  0.005  0.000  0.000  0.000  0.000  0.000  0.008
tot    0.019  0.036  0.032  0.108  0.211  0.002  0.253  0.006  0.070  0.736
 
band   115 # energy    0.69833215 # occ.  0.00000000
 
ion      s     py     pz     px    dxy    dyz    dz2    dxz  x2-y2    tot
    1  0.000  0.000  0.000  0.000  0.007  0.000  0.010  0.000  0.000  0.017
    2  0.000  0.001  0.000  0.001  0.084  0.000  0.017  0.000  0.043  0.147
    3  0.000  0.000  0.000  0.000  0.001  0.000  0.010  0.000  0.006  0.017
    4  0.000  0.000  0.000  0.000  0.002  0.000  0.000  0.000  0.007  0.009
    5  0.000  0.001  0.000  0.001  0.084  0.000  0.017  0.000  0.043  0.147
    6  0.000  0.000  0.000  0.002  0.104  0.000  0.017  0.000  0.021  0.145
    7  0.000  0.001  0.000  0.000  0.001  0.000  0.000  0.000  0.004  0.006
    8  0.000  0.000  0.000  0.002  0.104  0.000  0.017  0.000  0.021  0.145
    9  0.000  0.001  0.000  0.000  0.001  0.000  0.000  0.000  0.004  0.006
   10  0.000  0.000  0.000  0.000  0.001  0.000  0.010  0.000  0.006  0.017
   11  0.000  0.000  0.000  0.000  0.002  0.000  0.000  0.000  0.007  0.009
   12  0.000  0.000  0.000  0.000  0.007  0.000  0.010  0.000  0.000  0.017
   13  0.000  0.000  0.000  0.000  0.000  0.000  0.000  0.000  0.000  0.000
   14  0.000  0.001  0.004  0.003  0.000  0.000  0.000  0.000  0.000  0.008
   15  0.000  0.001  0.004  0.003  0.000  0.000  0.000  0.000  0.000  0.008
   16  0.000  0.003  0.000  0.005  0.000  0.000  0.000  0.000  0.000  0.009
   17  0.000  0.003  0.000  0.005  0.000  0.000  0.000  0.000  0.000  0.009
   18  0.000  0.001  0.004  0.003  0.000  0.000  0.000  0.000  0.000  0.008
   19  0.000  0.001  0.004  0.003  0.000  0.000  0.000  0.000  0.000  0.008
   20  0.000  0.000  0.000  0.000  0.000  0.000  0.000  0.000  0.000  0.000
   21  0.000  0.001  0.004  0.003  0.000  0.000  0.000  0.000  0.000  0.008
   22  0.000  0.001  0.004  0.003  0.000  0.000  0.000  0.000  0.000  0.008
   23  0.000  0.000  0.000  0.000  0.000  0.000  0.000  0.000  0.000  0.001
   24  0.000  0.000  0.000  0.000  0.000  0.000  0.000  0.000  0.000  0.001
   25  0.000  0.001  0.000  0.007  0.000  0.000  0.000  0.000  0.000  0.009
   26  0.000  0.001  0.000  0.007  0.000  0.000  0.000  0.000  0.000  0.009
   27  0.000  0.000  0.000  0.000  0.000  0.000  0.000  0.000  0.000  0.000
   28  0.000  0.000  0.000  0.000  0.000  0.000  0.000  0.000  0.000  0.000
   29  0.000  0.003  0.000  0.005  0.000  0.000  0.000  0.000  0.000  0.009
   30  0.000  0.001  0.004  0.003  0.000  0.000  0.000  0.000  0.000  0.008
   31  0.000  0.001  0.004  0.003  0.000  0.000  0.000  0.000  0.000  0.008
   32  0.000  0.003  0.000  0.005  0.000  0.000  0.000  0.000  0.000  0.009
   33  0.000  0.001  0.000  0.007  0.000  0.000  0.000  0.000  0.000  0.009
   34  0.000  0.001  0.000  0.007  0.000  0.000  0.000  0.000  0.000  0.009
   35  0.000  0.000  0.000  0.000  0.000  0.000  0.000  0.000  0.000  0.001
   36  0.000  0.000  0.000  0.000  0.000  0.000  0.000  0.000  0.000  0.001
tot    0.006  0.030  0.031  0.078  0.401  0.002  0.109  0.004  0.162  0.823
 
band   116 # energy    0.69843015 # occ.  0.00000000
 
ion      s     py     pz     px    dxy    dyz    dz2    dxz  x2-y2    tot
    1  0.000  0.000  0.000  0.000  0.000  0.000  0.003  0.000  0.008  0.012
    2  0.000  0.000  0.000  0.001  0.042  0.000  0.006  0.000  0.002  0.051
    3  0.000  0.000  0.000  0.000  0.006  0.000  0.003  0.000  0.003  0.012
    4  0.000  0.000  0.000  0.000  0.005  0.000  0.013  0.000  0.001  0.019
    5  0.000  0.000  0.000  0.001  0.042  0.000  0.006  0.000  0.002  0.051
    6  0.000  0.001  0.000  0.000  0.022  0.000  0.006  0.000  0.024  0.053
    7  0.000  0.001  0.000  0.002  0.125  0.000  0.022  0.000  0.042  0.193
    8  0.000  0.001  0.000  0.000  0.022  0.000  0.006  0.000  0.024  0.053
    9  0.000  0.001  0.000  0.002  0.126  0.000  0.022  0.000  0.042  0.193
   10  0.000  0.000  0.000  0.000  0.006  0.000  0.003  0.000  0.003  0.012
   11  0.000  0.000  0.000  0.000  0.005  0.000  0.013  0.000  0.001  0.019
   12  0.000  0.000  0.000  0.000  0.000  0.000  0.003  0.000  0.008  0.012
   13  0.000  0.001  0.005  0.004  0.000  0.000  0.000  0.000  0.000  0.011
   14  0.000  0.001  0.001  0.001  0.000  0.000  0.000  0.000  0.000  0.003
   15  0.000  0.001  0.001  0.001  0.000  0.000  0.000  0.000  0.000  0.003
   16  0.000  0.000  0.000  0.003  0.000  0.000  0.000  0.000  0.000  0.003
   17  0.000  0.000  0.000  0.003  0.000  0.000  0.000  0.000  0.000  0.003
   18  0.000  0.000  0.001  0.001  0.000  0.000  0.000  0.000  0.000  0.003
   19  0.000  0.000  0.001  0.001  0.000  0.000  0.000  0.000  0.000  0.003
   20  0.000  0.001  0.005  0.004  0.000  0.000  0.000  0.000  0.000  0.011
   21  0.000  0.001  0.001  0.001  0.000  0.000  0.000  0.000  0.000  0.003
   22  0.000  0.001  0.001  0.001  0.000  0.000  0.000  0.000  0.000  0.003
   23  0.000  0.003  0.000  0.008  0.000  0.000  0.000  0.001  0.000  0.012
   24  0.000  0.003  0.000  0.008  0.000  0.000  0.000  0.001  0.000  0.012
   25  0.000  0.002  0.000  0.001  0.000  0.000  0.000  0.000  0.000  0.004
   26  0.000  0.002  0.000  0.001  0.000  0.000  0.000  0.000  0.000  0.004
   27  0.000  0.001  0.005  0.004  0.000  0.000  0.000  0.000  0.000  0.011
   28  0.000  0.001  0.005  0.004  0.000  0.000  0.000  0.000  0.000  0.011
   29  0.000  0.000  0.000  0.003  0.000  0.000  0.000  0.000  0.000  0.003
   30  0.000  0.000  0.001  0.001  0.000  0.000  0.000  0.000  0.000  0.003
   31  0.000  0.000  0.001  0.001  0.000  0.000  0.000  0.000  0.000  0.003
   32  0.000  0.000  0.000  0.003  0.000  0.000  0.000  0.000  0.000  0.003
   33  0.000  0.002  0.000  0.001  0.000  0.000  0.000  0.000  0.000  0.004
   34  0.000  0.002  0.000  0.001  0.000  0.000  0.000  0.000  0.000  0.004
   35  0.000  0.003  0.000  0.008  0.000  0.000  0.000  0.001  0.000  0.012
   36  0.000  0.003  0.000  0.008  0.000  0.000  0.000  0.001  0.000  0.012
tot    0.006  0.030  0.031  0.078  0.401  0.002  0.109  0.004  0.162  0.823
 
band   117 # energy    0.69873445 # occ.  0.00000000
 
ion      s     py     pz     px    dxy    dyz    dz2    dxz  x2-y2    tot
    1  0.000  0.000  0.000  0.002  0.105  0.000  0.017  0.000  0.022  0.147
    2  0.000  0.000  0.000  0.000  0.001  0.000  0.010  0.000  0.006  0.017
    3  0.000  0.001  0.000  0.001  0.082  0.000  0.017  0.000  0.043  0.145
    4  0.000  0.001  0.000  0.000  0.001  0.000  0.000  0.000  0.003  0.006
    5  0.000  0.000  0.000  0.000  0.001  0.000  0.010  0.000  0.006  0.017
    6  0.000  0.000  0.000  0.000  0.007  0.000  0.010  0.000  0.000  0.017
    7  0.000  0.000  0.000  0.000  0.002  0.000  0.000  0.000  0.007  0.009
    8  0.000  0.000  0.000  0.000  0.007  0.000  0.010  0.000  0.000  0.017
    9  0.000  0.000  0.000  0.000  0.002  0.000  0.000  0.000  0.007  0.009
   10  0.000  0.001  0.000  0.001  0.082  0.000  0.017  0.000  0.043  0.145
   11  0.000  0.001  0.000  0.000  0.001  0.000  0.000  0.000  0.003  0.006
   12  0.000  0.000  0.000  0.002  0.105  0.000  0.017  0.000  0.022  0.147
   13  0.000  0.000  0.000  0.000  0.000  0.000  0.000  0.000  0.000  0.001
   14  0.000  0.001  0.000  0.007  0.000  0.000  0.000  0.000  0.000  0.009
   15  0.000  0.001  0.000  0.007  0.000  0.000  0.000  0.000  0.000  0.009
   16  0.000  0.001  0.004  0.003  0.000  0.000  0.000  0.000  0.000  0.008
   17  0.000  0.001  0.004  0.003  0.000  0.000  0.000  0.000  0.000  0.008
   18  0.000  0.003  0.000  0.005  0.000  0.000  0.000  0.000  0.000  0.009
   19  0.000  0.003  0.000  0.005  0.000  0.000  0.000  0.000  0.000  0.009
   20  0.000  0.000  0.000  0.000  0.000  0.000  0.000  0.000  0.000  0.001
   21  0.000  0.001  0.000  0.007  0.000  0.000  0.000  0.000  0.000  0.009
   22  0.000  0.001  0.000  0.007  0.000  0.000  0.000  0.000  0.000  0.009
   23  0.000  0.000  0.000  0.000  0.000  0.000  0.000  0.000  0.000  0.000
   24  0.000  0.000  0.000  0.000  0.000  0.000  0.000  0.000  0.000  0.000
   25  0.000  0.001  0.004  0.003  0.000  0.000  0.000  0.000  0.000  0.008
   26  0.000  0.001  0.004  0.003  0.000  0.000  0.000  0.000  0.000  0.008
   27  0.000  0.000  0.000  0.000  0.000  0.000  0.000  0.000  0.000  0.001
   28  0.000  0.000  0.000  0.000  0.000  0.000  0.000  0.000  0.000  0.001
   29  0.000  0.001  0.004  0.003  0.000  0.000  0.000  0.000  0.000  0.008
   30  0.000  0.003  0.000  0.005  0.000  0.000  0.000  0.000  0.000  0.009
   31  0.000  0.003  0.000  0.005  0.000  0.000  0.000  0.000  0.000  0.009
   32  0.000  0.001  0.004  0.003  0.000  0.000  0.000  0.000  0.000  0.008
   33  0.000  0.001  0.004  0.003  0.000  0.000  0.000  0.000  0.000  0.008
   34  0.000  0.001  0.004  0.003  0.000  0.000  0.000  0.000  0.000  0.008
   35  0.000  0.000  0.000  0.000  0.000  0.000  0.000  0.000  0.000  0.000
   36  0.000  0.000  0.000  0.000  0.000  0.000  0.000  0.000  0.000  0.000
tot    0.006  0.030  0.031  0.078  0.400  0.002  0.109  0.004  0.162  0.823
 
band   118 # energy    0.69883653 # occ.  0.00000000
 
ion      s     py     pz     px    dxy    dyz    dz2    dxz  x2-y2    tot
    1  0.000  0.001  0.000  0.000  0.021  0.000  0.006  0.000  0.023  0.051
    2  0.000  0.000  0.000  0.000  0.006  0.000  0.003  0.000  0.003  0.012
    3  0.000  0.000  0.000  0.001  0.043  0.000  0.006  0.000  0.003  0.053
    4  0.000  0.001  0.000  0.002  0.125  0.000  0.023  0.000  0.042  0.193
    5  0.000  0.000  0.000  0.000  0.006  0.000  0.003  0.000  0.003  0.012
    6  0.000  0.000  0.000  0.000  0.000  0.000  0.003  0.000  0.008  0.012
    7  0.000  0.000  0.000  0.000  0.005  0.000  0.013  0.000  0.002  0.019
    8  0.000  0.000  0.000  0.000  0.000  0.000  0.003  0.000  0.008  0.012
    9  0.000  0.000  0.000  0.000  0.005  0.000  0.013  0.000  0.002  0.019
   10  0.000  0.000  0.000  0.001  0.043  0.000  0.006  0.000  0.003  0.053
   11  0.000  0.001  0.000  0.002  0.125  0.000  0.023  0.000  0.042  0.193
   12  0.000  0.001  0.000  0.000  0.021  0.000  0.006  0.000  0.023  0.051
   13  0.000  0.003  0.000  0.008  0.000  0.000  0.000  0.001  0.000  0.012
   14  0.000  0.002  0.000  0.001  0.000  0.000  0.000  0.000  0.000  0.003
   15  0.000  0.002  0.000  0.001  0.000  0.000  0.000  0.000  0.000  0.003
   16  0.000  0.000  0.001  0.001  0.000  0.000  0.000  0.000  0.000  0.003
   17  0.000  0.000  0.001  0.001  0.000  0.000  0.000  0.000  0.000  0.003
   18  0.000  0.000  0.000  0.003  0.000  0.000  0.000  0.000  0.000  0.004
   19  0.000  0.000  0.000  0.003  0.000  0.000  0.000  0.000  0.000  0.004
   20  0.000  0.003  0.000  0.008  0.000  0.000  0.000  0.001  0.000  0.012
   21  0.000  0.002  0.000  0.001  0.000  0.000  0.000  0.000  0.000  0.003
   22  0.000  0.002  0.000  0.001  0.000  0.000  0.000  0.000  0.000  0.003
   23  0.000  0.001  0.005  0.004  0.000  0.000  0.000  0.000  0.000  0.011
   24  0.000  0.001  0.005  0.004  0.000  0.000  0.000  0.000  0.000  0.011
   25  0.000  0.001  0.001  0.001  0.000  0.000  0.000  0.000  0.000  0.003
   26  0.000  0.001  0.001  0.001  0.000  0.000  0.000  0.000  0.000  0.003
   27  0.000  0.003  0.000  0.008  0.000  0.000  0.000  0.001  0.000  0.012
   28  0.000  0.003  0.000  0.008  0.000  0.000  0.000  0.001  0.000  0.012
   29  0.000  0.000  0.001  0.001  0.000  0.000  0.000  0.000  0.000  0.003
   30  0.000  0.000  0.000  0.003  0.000  0.000  0.000  0.000  0.000  0.004
   31  0.000  0.000  0.000  0.003  0.000  0.000  0.000  0.000  0.000  0.004
   32  0.000  0.000  0.001  0.001  0.000  0.000  0.000  0.000  0.000  0.003
   33  0.000  0.001  0.001  0.001  0.000  0.000  0.000  0.000  0.000  0.003
   34  0.000  0.001  0.001  0.001  0.000  0.000  0.000  0.000  0.000  0.003
   35  0.000  0.001  0.005  0.004  0.000  0.000  0.000  0.000  0.000  0.011
   36  0.000  0.001  0.005  0.004  0.000  0.000  0.000  0.000  0.000  0.011
tot    0.006  0.030  0.031  0.078  0.400  0.002  0.109  0.004  0.162  0.823
 
band   119 # energy    0.72342586 # occ.  0.00000000
 
ion      s     py     pz     px    dxy    dyz    dz2    dxz  x2-y2    tot
    1  0.000  0.000  0.000  0.000  0.018  0.000  0.000  0.000  0.055  0.074
    2  0.000  0.000  0.000  0.000  0.018  0.000  0.000  0.000  0.055  0.074
    3  0.000  0.000  0.000  0.000  0.018  0.000  0.000  0.000  0.055  0.074
    4  0.000  0.000  0.000  0.000  0.018  0.000  0.000  0.000  0.055  0.074
    5  0.000  0.000  0.000  0.000  0.018  0.000  0.000  0.000  0.055  0.074
    6  0.000  0.000  0.000  0.000  0.018  0.000  0.000  0.000  0.055  0.074
    7  0.000  0.000  0.000  0.000  0.018  0.000  0.000  0.000  0.055  0.074
    8  0.000  0.000  0.000  0.000  0.018  0.000  0.000  0.000  0.055  0.074
    9  0.000  0.000  0.000  0.000  0.018  0.000  0.000  0.000  0.055  0.074
   10  0.000  0.000  0.000  0.000  0.018  0.000  0.000  0.000  0.055  0.074
   11  0.000  0.000  0.000  0.000  0.018  0.000  0.000  0.000  0.055  0.074
   12  0.000  0.000  0.000  0.000  0.018  0.000  0.000  0.000  0.055  0.074
   13  0.000  0.001  0.000  0.000  0.000  0.000  0.000  0.000  0.000  0.002
   14  0.000  0.001  0.000  0.000  0.000  0.000  0.000  0.000  0.000  0.002
   15  0.000  0.001  0.000  0.000  0.000  0.000  0.000  0.000  0.000  0.002
   16  0.000  0.001  0.000  0.000  0.000  0.000  0.000  0.000  0.000  0.002
   17  0.000  0.001  0.000  0.000  0.000  0.000  0.000  0.000  0.000  0.002
   18  0.000  0.001  0.000  0.000  0.000  0.000  0.000  0.000  0.000  0.002
   19  0.000  0.001  0.000  0.000  0.000  0.000  0.000  0.000  0.000  0.002
   20  0.000  0.001  0.000  0.000  0.000  0.000  0.000  0.000  0.000  0.002
   21  0.000  0.001  0.000  0.000  0.000  0.000  0.000  0.000  0.000  0.002
   22  0.000  0.001  0.000  0.000  0.000  0.000  0.000  0.000  0.000  0.002
   23  0.000  0.001  0.000  0.000  0.000  0.000  0.000  0.000  0.000  0.002
   24  0.000  0.001  0.000  0.000  0.000  0.000  0.000  0.000  0.000  0.002
   25  0.000  0.001  0.000  0.000  0.000  0.000  0.000  0.000  0.000  0.002
   26  0.000  0.001  0.000  0.000  0.000  0.000  0.000  0.000  0.000  0.002
   27  0.000  0.001  0.000  0.000  0.000  0.000  0.000  0.000  0.000  0.002
   28  0.000  0.001  0.000  0.000  0.000  0.000  0.000  0.000  0.000  0.002
   29  0.000  0.001  0.000  0.000  0.000  0.000  0.000  0.000  0.000  0.002
   30  0.000  0.001  0.000  0.000  0.000  0.000  0.000  0.000  0.000  0.002
   31  0.000  0.001  0.000  0.000  0.000  0.000  0.000  0.000  0.000  0.002
   32  0.000  0.001  0.000  0.000  0.000  0.000  0.000  0.000  0.000  0.002
   33  0.000  0.001  0.000  0.000  0.000  0.000  0.000  0.000  0.000  0.002
   34  0.000  0.001  0.000  0.000  0.000  0.000  0.000  0.000  0.000  0.002
   35  0.000  0.001  0.000  0.000  0.000  0.000  0.000  0.000  0.000  0.002
   36  0.000  0.001  0.000  0.000  0.000  0.000  0.000  0.000  0.000  0.002
tot    0.000  0.035  0.000  0.012  0.221  0.002  0.000  0.001  0.664  0.935
 
band   120 # energy    0.97057395 # occ.  0.00000000
 
ion      s     py     pz     px    dxy    dyz    dz2    dxz  x2-y2    tot
    1  0.001  0.000  0.000  0.000  0.004  0.000  0.008  0.000  0.036  0.050
    2  0.000  0.000  0.000  0.000  0.008  0.000  0.021  0.000  0.048  0.078
    3  0.001  0.000  0.000  0.000  0.018  0.000  0.008  0.000  0.022  0.050
    4  0.005  0.000  0.000  0.000  0.005  0.000  0.033  0.000  0.002  0.045
    5  0.000  0.000  0.000  0.000  0.008  0.000  0.021  0.000  0.048  0.078
    6  0.000  0.000  0.000  0.000  0.021  0.000  0.021  0.000  0.035  0.077
    7  0.000  0.000  0.000  0.000  0.003  0.000  0.084  0.000  0.001  0.090
    8  0.000  0.000  0.000  0.000  0.021  0.000  0.021  0.000  0.035  0.077
    9  0.000  0.000  0.000  0.000  0.003  0.000  0.084  0.000  0.001  0.090
   10  0.001  0.000  0.000  0.000  0.018  0.000  0.008  0.000  0.022  0.050
   11  0.005  0.000  0.000  0.000  0.005  0.000  0.033  0.000  0.002  0.045
   12  0.001  0.000  0.000  0.000  0.004  0.000  0.008  0.000  0.036  0.050
   13  0.000  0.000  0.001  0.001  0.000  0.000  0.000  0.000  0.000  0.004
   14  0.000  0.005  0.000  0.004  0.000  0.000  0.000  0.000  0.000  0.010
   15  0.000  0.005  0.000  0.004  0.000  0.000  0.000  0.000  0.000  0.010
   16  0.000  0.000  0.000  0.000  0.000  0.000  0.000  0.000  0.000  0.000
   17  0.000  0.000  0.000  0.000  0.000  0.000  0.000  0.000  0.000  0.000
   18  0.000  0.008  0.000  0.001  0.000  0.000  0.000  0.000  0.000  0.010
   19  0.000  0.008  0.000  0.001  0.000  0.000  0.000  0.000  0.000  0.010
   20  0.000  0.000  0.001  0.001  0.000  0.000  0.000  0.000  0.000  0.004
   21  0.000  0.005  0.000  0.004  0.000  0.000  0.000  0.000  0.000  0.010
   22  0.000  0.005  0.000  0.004  0.000  0.000  0.000  0.000  0.000  0.010
   23  0.000  0.000  0.000  0.000  0.000  0.000  0.000  0.000  0.000  0.001
   24  0.000  0.000  0.000  0.000  0.000  0.000  0.000  0.000  0.000  0.001
   25  0.000  0.000  0.000  0.000  0.000  0.000  0.000  0.000  0.000  0.000
   26  0.000  0.000  0.000  0.000  0.000  0.000  0.000  0.000  0.000  0.000
   27  0.000  0.000  0.001  0.001  0.000  0.000  0.000  0.000  0.000  0.004
   28  0.000  0.000  0.001  0.001  0.000  0.000  0.000  0.000  0.000  0.004
   29  0.000  0.000  0.000  0.000  0.000  0.000  0.000  0.000  0.000  0.000
   30  0.000  0.008  0.000  0.001  0.000  0.000  0.000  0.000  0.000  0.010
   31  0.000  0.008  0.000  0.001  0.000  0.000  0.000  0.000  0.000  0.010
   32  0.000  0.000  0.000  0.000  0.000  0.000  0.000  0.000  0.000  0.000
   33  0.000  0.000  0.000  0.000  0.000  0.000  0.000  0.000  0.000  0.000
   34  0.000  0.000  0.000  0.000  0.000  0.000  0.000  0.000  0.000  0.000
   35  0.000  0.000  0.000  0.000  0.000  0.000  0.000  0.000  0.000  0.001
   36  0.000  0.000  0.000  0.000  0.000  0.000  0.000  0.000  0.000  0.001
tot    0.017  0.057  0.009  0.028  0.120  0.003  0.355  0.001  0.290  0.881
 
band   121 # energy    0.97063507 # occ.  0.00000000
 
ion      s     py     pz     px    dxy    dyz    dz2    dxz  x2-y2    tot
    1  0.004  0.000  0.000  0.000  0.014  0.000  0.026  0.000  0.004  0.047
    2  0.000  0.000  0.000  0.000  0.014  0.000  0.063  0.000  0.008  0.085
    3  0.004  0.000  0.000  0.000  0.000  0.000  0.025  0.000  0.018  0.047
    4  0.000  0.000  0.000  0.000  0.013  0.000  0.000  0.000  0.038  0.051
    5  0.000  0.000  0.000  0.000  0.014  0.000  0.063  0.000  0.008  0.085
    6  0.000  0.000  0.000  0.000  0.000  0.000  0.063  0.000  0.021  0.085
    7  0.000  0.000  0.000  0.000  0.019  0.000  0.000  0.000  0.056  0.075
    8  0.000  0.000  0.000  0.000  0.000  0.000  0.063  0.000  0.021  0.085
    9  0.000  0.000  0.000  0.000  0.019  0.000  0.000  0.000  0.056  0.075
   10  0.004  0.000  0.000  0.000  0.000  0.000  0.025  0.000  0.018  0.047
   11  0.000  0.000  0.000  0.000  0.013  0.000  0.000  0.000  0.038  0.051
   12  0.004  0.000  0.000  0.000  0.014  0.000  0.026  0.000  0.004  0.047
   13  0.000  0.008  0.000  0.003  0.000  0.000  0.000  0.000  0.000  0.012
   14  0.000  0.004  0.001  0.000  0.000  0.000  0.000  0.000  0.000  0.006
   15  0.000  0.004  0.001  0.000  0.000  0.000  0.000  0.000  0.000  0.006
   16  0.000  0.000  0.000  0.000  0.000  0.000  0.000  0.000  0.000  0.001
   17  0.000  0.000  0.000  0.000  0.000  0.000  0.000  0.000  0.000  0.001
   18  0.000  0.001  0.001  0.003  0.000  0.000  0.000  0.000  0.000  0.006
   19  0.000  0.001  0.001  0.003  0.000  0.000  0.000  0.000  0.000  0.006
   20  0.000  0.008  0.000  0.003  0.000  0.000  0.000  0.000  0.000  0.012
   21  0.000  0.004  0.001  0.000  0.000  0.000  0.000  0.000  0.000  0.006
   22  0.000  0.004  0.001  0.000  0.000  0.000  0.000  0.000  0.000  0.006
   23  0.000  0.000  0.000  0.000  0.000  0.000  0.000  0.000  0.000  0.000
   24  0.000  0.000  0.000  0.000  0.000  0.000  0.000  0.000  0.000  0.000
   25  0.000  0.000  0.000  0.000  0.000  0.000  0.000  0.000  0.000  0.001
   26  0.000  0.000  0.000  0.000  0.000  0.000  0.000  0.000  0.000  0.001
   27  0.000  0.008  0.000  0.003  0.000  0.000  0.000  0.000  0.000  0.012
   28  0.000  0.008  0.000  0.003  0.000  0.000  0.000  0.000  0.000  0.012
   29  0.000  0.000  0.000  0.000  0.000  0.000  0.000  0.000  0.000  0.001
   30  0.000  0.001  0.001  0.003  0.000  0.000  0.000  0.000  0.000  0.006
   31  0.000  0.001  0.001  0.003  0.000  0.000  0.000  0.000  0.000  0.006
   32  0.000  0.000  0.000  0.000  0.000  0.000  0.000  0.000  0.000  0.001
   33  0.000  0.000  0.000  0.000  0.000  0.000  0.000  0.000  0.000  0.001
   34  0.000  0.000  0.000  0.000  0.000  0.000  0.000  0.000  0.000  0.001
   35  0.000  0.000  0.000  0.000  0.000  0.000  0.000  0.000  0.000  0.000
   36  0.000  0.000  0.000  0.000  0.000  0.000  0.000  0.000  0.000  0.000
tot    0.017  0.057  0.009  0.028  0.121  0.003  0.355  0.001  0.290  0.881
 
band   122 # energy    0.97079150 # occ.  0.00000000
 
ion      s     py     pz     px    dxy    dyz    dz2    dxz  x2-y2    tot
    1  0.000  0.000  0.000  0.000  0.021  0.000  0.021  0.000  0.035  0.077
    2  0.001  0.000  0.000  0.000  0.018  0.000  0.008  0.000  0.022  0.050
    3  0.000  0.000  0.000  0.000  0.008  0.000  0.021  0.000  0.049  0.078
    4  0.000  0.000  0.000  0.000  0.003  0.000  0.084  0.000  0.001  0.090
    5  0.001  0.000  0.000  0.000  0.018  0.000  0.008  0.000  0.022  0.050
    6  0.001  0.000  0.000  0.000  0.004  0.000  0.008  0.000  0.036  0.050
    7  0.005  0.000  0.000  0.000  0.005  0.000  0.033  0.000  0.002  0.045
    8  0.001  0.000  0.000  0.000  0.004  0.000  0.008  0.000  0.036  0.050
    9  0.005  0.000  0.000  0.000  0.005  0.000  0.033  0.000  0.002  0.045
   10  0.000  0.000  0.000  0.000  0.008  0.000  0.021  0.000  0.049  0.078
   11  0.000  0.000  0.000  0.000  0.003  0.000  0.084  0.000  0.001  0.090
   12  0.000  0.000  0.000  0.000  0.021  0.000  0.021  0.000  0.035  0.077
   13  0.000  0.000  0.000  0.000  0.000  0.000  0.000  0.000  0.000  0.001
   14  0.000  0.000  0.000  0.000  0.000  0.000  0.000  0.000  0.000  0.000
   15  0.000  0.000  0.000  0.000  0.000  0.000  0.000  0.000  0.000  0.000
   16  0.000  0.008  0.000  0.001  0.000  0.000  0.000  0.000  0.000  0.010
   17  0.000  0.008  0.000  0.001  0.000  0.000  0.000  0.000  0.000  0.010
   18  0.000  0.000  0.000  0.000  0.000  0.000  0.000  0.000  0.000  0.000
   19  0.000  0.000  0.000  0.000  0.000  0.000  0.000  0.000  0.000  0.000
   20  0.000  0.000  0.000  0.000  0.000  0.000  0.000  0.000  0.000  0.001
   21  0.000  0.000  0.000  0.000  0.000  0.000  0.000  0.000  0.000  0.000
   22  0.000  0.000  0.000  0.000  0.000  0.000  0.000  0.000  0.000  0.000
   23  0.000  0.000  0.001  0.001  0.000  0.000  0.000  0.000  0.000  0.004
   24  0.000  0.000  0.001  0.001  0.000  0.000  0.000  0.000  0.000  0.004
   25  0.000  0.005  0.000  0.004  0.000  0.000  0.000  0.000  0.000  0.010
   26  0.000  0.005  0.000  0.004  0.000  0.000  0.000  0.000  0.000  0.010
   27  0.000  0.000  0.000  0.000  0.000  0.000  0.000  0.000  0.000  0.001
   28  0.000  0.000  0.000  0.000  0.000  0.000  0.000  0.000  0.000  0.001
   29  0.000  0.008  0.000  0.001  0.000  0.000  0.000  0.000  0.000  0.010
   30  0.000  0.000  0.000  0.000  0.000  0.000  0.000  0.000  0.000  0.000
   31  0.000  0.000  0.000  0.000  0.000  0.000  0.000  0.000  0.000  0.000
   32  0.000  0.008  0.000  0.001  0.000  0.000  0.000  0.000  0.000  0.010
   33  0.000  0.005  0.000  0.004  0.000  0.000  0.000  0.000  0.000  0.010
   34  0.000  0.005  0.000  0.004  0.000  0.000  0.000  0.000  0.000  0.010
   35  0.000  0.000  0.001  0.001  0.000  0.000  0.000  0.000  0.000  0.004
   36  0.000  0.000  0.001  0.001  0.000  0.000  0.000  0.000  0.000  0.004
tot    0.017  0.057  0.009  0.028  0.120  0.003  0.356  0.001  0.290  0.881
 
band   123 # energy    0.97085046 # occ.  0.00000000
 
ion      s     py     pz     px    dxy    dyz    dz2    dxz  x2-y2    tot
    1  0.000  0.000  0.000  0.000  0.000  0.000  0.063  0.000  0.022  0.085
    2  0.004  0.000  0.000  0.000  0.000  0.000  0.026  0.000  0.018  0.047
    3  0.000  0.000  0.000  0.000  0.014  0.000  0.063  0.000  0.008  0.085
    4  0.000  0.000  0.000  0.000  0.019  0.000  0.000  0.000  0.056  0.074
    5  0.004  0.000  0.000  0.000  0.000  0.000  0.026  0.000  0.018  0.047
    6  0.004  0.000  0.000  0.000  0.014  0.000  0.026  0.000  0.004  0.047
    7  0.000  0.000  0.000  0.000  0.013  0.000  0.000  0.000  0.038  0.051
    8  0.004  0.000  0.000  0.000  0.014  0.000  0.026  0.000  0.004  0.047
    9  0.000  0.000  0.000  0.000  0.013  0.000  0.000  0.000  0.038  0.051
   10  0.000  0.000  0.000  0.000  0.014  0.000  0.063  0.000  0.008  0.085
   11  0.000  0.000  0.000  0.000  0.019  0.000  0.000  0.000  0.056  0.074
   12  0.000  0.000  0.000  0.000  0.000  0.000  0.063  0.000  0.022  0.085
   13  0.000  0.000  0.000  0.000  0.000  0.000  0.000  0.000  0.000  0.000
   14  0.000  0.000  0.000  0.000  0.000  0.000  0.000  0.000  0.000  0.001
   15  0.000  0.000  0.000  0.000  0.000  0.000  0.000  0.000  0.000  0.001
   16  0.000  0.001  0.001  0.003  0.000  0.000  0.000  0.000  0.000  0.006
   17  0.000  0.001  0.001  0.003  0.000  0.000  0.000  0.000  0.000  0.006
   18  0.000  0.000  0.000  0.000  0.000  0.000  0.000  0.000  0.000  0.001
   19  0.000  0.000  0.000  0.000  0.000  0.000  0.000  0.000  0.000  0.001
   20  0.000  0.000  0.000  0.000  0.000  0.000  0.000  0.000  0.000  0.000
   21  0.000  0.000  0.000  0.000  0.000  0.000  0.000  0.000  0.000  0.001
   22  0.000  0.000  0.000  0.000  0.000  0.000  0.000  0.000  0.000  0.001
   23  0.000  0.008  0.000  0.003  0.000  0.000  0.000  0.000  0.000  0.012
   24  0.000  0.008  0.000  0.003  0.000  0.000  0.000  0.000  0.000  0.012
   25  0.000  0.004  0.001  0.000  0.000  0.000  0.000  0.000  0.000  0.006
   26  0.000  0.004  0.001  0.000  0.000  0.000  0.000  0.000  0.000  0.006
   27  0.000  0.000  0.000  0.000  0.000  0.000  0.000  0.000  0.000  0.000
   28  0.000  0.000  0.000  0.000  0.000  0.000  0.000  0.000  0.000  0.000
   29  0.000  0.001  0.001  0.003  0.000  0.000  0.000  0.000  0.000  0.006
   30  0.000  0.000  0.000  0.000  0.000  0.000  0.000  0.000  0.000  0.001
   31  0.000  0.000  0.000  0.000  0.000  0.000  0.000  0.000  0.000  0.001
   32  0.000  0.001  0.001  0.003  0.000  0.000  0.000  0.000  0.000  0.006
   33  0.000  0.004  0.001  0.000  0.000  0.000  0.000  0.000  0.000  0.006
   34  0.000  0.004  0.001  0.000  0.000  0.000  0.000  0.000  0.000  0.006
   35  0.000  0.008  0.000  0.003  0.000  0.000  0.000  0.000  0.000  0.012
   36  0.000  0.008  0.000  0.003  0.000  0.000  0.000  0.000  0.000  0.012
tot    0.017  0.057  0.009  0.028  0.121  0.003  0.355  0.001  0.290  0.881
 
band   124 # energy    1.04383175 # occ.  0.00000000
 
ion      s     py     pz     px    dxy    dyz    dz2    dxz  x2-y2    tot
    1  0.002  0.000  0.000  0.000  0.042  0.000  0.027  0.000  0.010  0.081
    2  0.002  0.000  0.000  0.000  0.036  0.000  0.027  0.000  0.016  0.081
    3  0.002  0.000  0.000  0.000  0.036  0.000  0.027  0.000  0.016  0.081
    4  0.000  0.000  0.000  0.000  0.000  0.000  0.000  0.000  0.001  0.002
    5  0.002  0.000  0.000  0.000  0.036  0.000  0.027  0.000  0.016  0.081
    6  0.002  0.000  0.000  0.000  0.041  0.000  0.027  0.000  0.010  0.081
    7  0.000  0.000  0.000  0.000  0.000  0.000  0.000  0.000  0.001  0.002
    8  0.002  0.000  0.000  0.000  0.041  0.000  0.027  0.000  0.010  0.081
    9  0.000  0.000  0.000  0.000  0.000  0.000  0.000  0.000  0.001  0.002
   10  0.002  0.000  0.000  0.000  0.036  0.000  0.027  0.000  0.016  0.081
   11  0.000  0.000  0.000  0.000  0.000  0.000  0.000  0.000  0.001  0.002
   12  0.002  0.000  0.000  0.000  0.042  0.000  0.027  0.000  0.010  0.081
   13  0.000  0.001  0.000  0.000  0.000  0.000  0.000  0.000  0.000  0.002
   14  0.000  0.001  0.001  0.009  0.000  0.000  0.000  0.000  0.000  0.011
   15  0.000  0.001  0.001  0.009  0.000  0.000  0.000  0.000  0.000  0.011
   16  0.000  0.004  0.001  0.005  0.000  0.000  0.000  0.000  0.000  0.011
   17  0.000  0.004  0.001  0.005  0.000  0.000  0.000  0.000  0.000  0.011
   18  0.000  0.004  0.001  0.005  0.000  0.000  0.000  0.000  0.000  0.011
   19  0.000  0.004  0.001  0.005  0.000  0.000  0.000  0.000  0.000  0.011
   20  0.000  0.001  0.000  0.000  0.000  0.000  0.000  0.000  0.000  0.002
   21  0.000  0.001  0.001  0.009  0.000  0.000  0.000  0.000  0.000  0.011
   22  0.000  0.001  0.001  0.009  0.000  0.000  0.000  0.000  0.000  0.011
   23  0.000  0.001  0.000  0.000  0.000  0.000  0.000  0.000  0.000  0.002
   24  0.000  0.001  0.000  0.000  0.000  0.000  0.000  0.000  0.000  0.002
   25  0.000  0.001  0.001  0.009  0.000  0.000  0.000  0.000  0.000  0.011
   26  0.000  0.001  0.001  0.009  0.000  0.000  0.000  0.000  0.000  0.011
   27  0.000  0.001  0.000  0.000  0.000  0.000  0.000  0.000  0.000  0.002
   28  0.000  0.001  0.000  0.000  0.000  0.000  0.000  0.000  0.000  0.002
   29  0.000  0.004  0.001  0.005  0.000  0.000  0.000  0.000  0.000  0.011
   30  0.000  0.004  0.001  0.005  0.000  0.000  0.000  0.000  0.000  0.011
   31  0.000  0.004  0.001  0.005  0.000  0.000  0.000  0.000  0.000  0.011
   32  0.000  0.004  0.001  0.005  0.000  0.000  0.000  0.000  0.000  0.011
   33  0.000  0.001  0.001  0.009  0.000  0.000  0.000  0.000  0.000  0.011
   34  0.000  0.001  0.001  0.009  0.000  0.000  0.000  0.000  0.000  0.011
   35  0.000  0.001  0.000  0.000  0.000  0.000  0.000  0.000  0.000  0.002
   36  0.000  0.001  0.000  0.000  0.000  0.000  0.000  0.000  0.000  0.002
tot    0.014  0.055  0.010  0.119  0.311  0.001  0.219  0.003  0.111  0.843
 
band   125 # energy    1.04402746 # occ.  0.00000000
 
ion      s     py     pz     px    dxy    dyz    dz2    dxz  x2-y2    tot
    1  0.001  0.001  0.000  0.000  0.010  0.000  0.009  0.000  0.008  0.028
    2  0.001  0.000  0.000  0.000  0.016  0.000  0.009  0.000  0.002  0.028
    3  0.001  0.000  0.000  0.000  0.016  0.000  0.009  0.000  0.002  0.028
    4  0.002  0.000  0.000  0.000  0.051  0.000  0.036  0.000  0.017  0.107
    5  0.001  0.000  0.000  0.000  0.016  0.000  0.009  0.000  0.002  0.028
    6  0.001  0.001  0.000  0.000  0.010  0.000  0.009  0.000  0.008  0.028
    7  0.002  0.000  0.000  0.000  0.051  0.000  0.036  0.000  0.017  0.107
    8  0.001  0.001  0.000  0.000  0.010  0.000  0.009  0.000  0.008  0.028
    9  0.002  0.000  0.000  0.000  0.051  0.000  0.036  0.000  0.017  0.107
   10  0.001  0.000  0.000  0.000  0.016  0.000  0.009  0.000  0.002  0.028
   11  0.002  0.000  0.000  0.000  0.051  0.000  0.036  0.000  0.017  0.107
   12  0.001  0.001  0.000  0.000  0.010  0.000  0.009  0.000  0.008  0.028
   13  0.000  0.003  0.001  0.009  0.000  0.000  0.000  0.000  0.000  0.014
   14  0.000  0.003  0.000  0.001  0.000  0.000  0.000  0.000  0.000  0.005
   15  0.000  0.003  0.000  0.001  0.000  0.000  0.000  0.000  0.000  0.005
   16  0.000  0.000  0.000  0.004  0.000  0.000  0.000  0.000  0.000  0.005
   17  0.000  0.000  0.000  0.004  0.000  0.000  0.000  0.000  0.000  0.005
   18  0.000  0.000  0.000  0.004  0.000  0.000  0.000  0.000  0.000  0.005
   19  0.000  0.000  0.000  0.004  0.000  0.000  0.000  0.000  0.000  0.005
   20  0.000  0.003  0.001  0.009  0.000  0.000  0.000  0.000  0.000  0.014
   21  0.000  0.003  0.000  0.001  0.000  0.000  0.000  0.000  0.000  0.005
   22  0.000  0.003  0.000  0.001  0.000  0.000  0.000  0.000  0.000  0.005
   23  0.000  0.003  0.001  0.009  0.000  0.000  0.000  0.000  0.000  0.014
   24  0.000  0.003  0.001  0.009  0.000  0.000  0.000  0.000  0.000  0.014
   25  0.000  0.003  0.000  0.001  0.000  0.000  0.000  0.000  0.000  0.005
   26  0.000  0.003  0.000  0.001  0.000  0.000  0.000  0.000  0.000  0.005
   27  0.000  0.003  0.001  0.009  0.000  0.000  0.000  0.000  0.000  0.014
   28  0.000  0.003  0.001  0.009  0.000  0.000  0.000  0.000  0.000  0.014
   29  0.000  0.000  0.000  0.004  0.000  0.000  0.000  0.000  0.000  0.005
   30  0.000  0.000  0.000  0.004  0.000  0.000  0.000  0.000  0.000  0.005
   31  0.000  0.000  0.000  0.004  0.000  0.000  0.000  0.000  0.000  0.005
   32  0.000  0.000  0.000  0.004  0.000  0.000  0.000  0.000  0.000  0.005
   33  0.000  0.003  0.000  0.001  0.000  0.000  0.000  0.000  0.000  0.005
   34  0.000  0.003  0.000  0.001  0.000  0.000  0.000  0.000  0.000  0.005
   35  0.000  0.003  0.001  0.009  0.000  0.000  0.000  0.000  0.000  0.014
   36  0.000  0.003  0.001  0.009  0.000  0.000  0.000  0.000  0.000  0.014
tot    0.014  0.055  0.010  0.119  0.311  0.001  0.219  0.003  0.111  0.843
 
band   126 # energy    1.09487872 # occ.  0.00000000
 
ion      s     py     pz     px    dxy    dyz    dz2    dxz  x2-y2    tot
    1  0.000  0.002  0.000  0.001  0.005  0.000  0.000  0.000  0.016  0.024
    2  0.000  0.000  0.000  0.000  0.014  0.000  0.000  0.000  0.042  0.056
    3  0.000  0.002  0.000  0.001  0.005  0.000  0.000  0.000  0.016  0.024
    4  0.000  0.002  0.000  0.001  0.005  0.000  0.000  0.000  0.016  0.024
    5  0.000  0.000  0.000  0.000  0.014  0.000  0.000  0.000  0.042  0.056
    6  0.000  0.000  0.000  0.000  0.014  0.000  0.000  0.000  0.042  0.056
    7  0.000  0.000  0.000  0.000  0.014  0.000  0.000  0.000  0.042  0.056
    8  0.000  0.000  0.000  0.000  0.014  0.000  0.000  0.000  0.042  0.056
    9  0.000  0.000  0.000  0.000  0.014  0.000  0.000  0.000  0.042  0.056
   10  0.000  0.002  0.000  0.001  0.005  0.000  0.000  0.000  0.016  0.024
   11  0.000  0.002  0.000  0.001  0.005  0.000  0.000  0.000  0.016  0.024
   12  0.000  0.002  0.000  0.001  0.005  0.000  0.000  0.000  0.016  0.024
   13  0.000  0.003  0.000  0.001  0.000  0.000  0.000  0.000  0.000  0.005
   14  0.000  0.003  0.000  0.001  0.000  0.000  0.000  0.000  0.000  0.005
   15  0.000  0.003  0.000  0.001  0.000  0.000  0.000  0.000  0.000  0.005
   16  0.000  0.017  0.000  0.006  0.000  0.000  0.000  0.000  0.000  0.023
   17  0.000  0.017  0.000  0.006  0.000  0.000  0.000  0.000  0.000  0.023
   18  0.000  0.003  0.000  0.001  0.000  0.000  0.000  0.000  0.000  0.005
   19  0.000  0.003  0.000  0.001  0.000  0.000  0.000  0.000  0.000  0.005
   20  0.000  0.003  0.000  0.001  0.000  0.000  0.000  0.000  0.000  0.005
   21  0.000  0.003  0.000  0.001  0.000  0.000  0.000  0.000  0.000  0.005
   22  0.000  0.003  0.000  0.001  0.000  0.000  0.000  0.000  0.000  0.005
   23  0.000  0.017  0.000  0.006  0.000  0.000  0.000  0.000  0.000  0.023
   24  0.000  0.017  0.000  0.006  0.000  0.000  0.000  0.000  0.000  0.023
   25  0.000  0.017  0.000  0.006  0.000  0.000  0.000  0.000  0.000  0.023
   26  0.000  0.017  0.000  0.006  0.000  0.000  0.000  0.000  0.000  0.023
   27  0.000  0.003  0.000  0.001  0.000  0.000  0.000  0.000  0.000  0.005
   28  0.000  0.003  0.000  0.001  0.000  0.000  0.000  0.000  0.000  0.005
   29  0.000  0.017  0.000  0.006  0.000  0.000  0.000  0.000  0.000  0.023
   30  0.000  0.003  0.000  0.001  0.000  0.000  0.000  0.000  0.000  0.005
   31  0.000  0.003  0.000  0.001  0.000  0.000  0.000  0.000  0.000  0.005
   32  0.000  0.017  0.000  0.006  0.000  0.000  0.000  0.000  0.000  0.023
   33  0.000  0.017  0.000  0.006  0.000  0.000  0.000  0.000  0.000  0.023
   34  0.000  0.017  0.000  0.006  0.000  0.000  0.000  0.000  0.000  0.023
   35  0.000  0.017  0.000  0.006  0.000  0.000  0.000  0.000  0.000  0.023
   36  0.000  0.017  0.000  0.006  0.000  0.000  0.000  0.000  0.000  0.023
tot    0.000  0.256  0.000  0.085  0.116  0.003  0.000  0.001  0.349  0.811
 
band   127 # energy    1.09595190 # occ.  0.00000000
 
ion      s     py     pz     px    dxy    dyz    dz2    dxz  x2-y2    tot
    1  0.000  0.000  0.000  0.000  0.014  0.000  0.000  0.000  0.042  0.056
    2  0.000  0.002  0.000  0.001  0.005  0.000  0.000  0.000  0.016  0.024
    3  0.000  0.000  0.000  0.000  0.014  0.000  0.000  0.000  0.042  0.056
    4  0.000  0.000  0.000  0.000  0.014  0.000  0.000  0.000  0.042  0.056
    5  0.000  0.002  0.000  0.001  0.005  0.000  0.000  0.000  0.016  0.024
    6  0.000  0.002  0.000  0.001  0.005  0.000  0.000  0.000  0.016  0.024
    7  0.000  0.002  0.000  0.001  0.005  0.000  0.000  0.000  0.016  0.024
    8  0.000  0.002  0.000  0.001  0.005  0.000  0.000  0.000  0.016  0.024
    9  0.000  0.002  0.000  0.001  0.005  0.000  0.000  0.000  0.016  0.024
   10  0.000  0.000  0.000  0.000  0.014  0.000  0.000  0.000  0.042  0.056
   11  0.000  0.000  0.000  0.000  0.014  0.000  0.000  0.000  0.042  0.056
   12  0.000  0.000  0.000  0.000  0.014  0.000  0.000  0.000  0.042  0.056
   13  0.000  0.017  0.000  0.006  0.000  0.000  0.000  0.000  0.000  0.023
   14  0.000  0.017  0.000  0.006  0.000  0.000  0.000  0.000  0.000  0.023
   15  0.000  0.017  0.000  0.006  0.000  0.000  0.000  0.000  0.000  0.023
   16  0.000  0.003  0.000  0.001  0.000  0.000  0.000  0.000  0.000  0.005
   17  0.000  0.003  0.000  0.001  0.000  0.000  0.000  0.000  0.000  0.005
   18  0.000  0.017  0.000  0.006  0.000  0.000  0.000  0.000  0.000  0.023
   19  0.000  0.017  0.000  0.006  0.000  0.000  0.000  0.000  0.000  0.023
   20  0.000  0.017  0.000  0.006  0.000  0.000  0.000  0.000  0.000  0.023
   21  0.000  0.017  0.000  0.006  0.000  0.000  0.000  0.000  0.000  0.023
   22  0.000  0.017  0.000  0.006  0.000  0.000  0.000  0.000  0.000  0.023
   23  0.000  0.003  0.000  0.001  0.000  0.000  0.000  0.000  0.000  0.005
   24  0.000  0.003  0.000  0.001  0.000  0.000  0.000  0.000  0.000  0.005
   25  0.000  0.003  0.000  0.001  0.000  0.000  0.000  0.000  0.000  0.005
   26  0.000  0.003  0.000  0.001  0.000  0.000  0.000  0.000  0.000  0.005
   27  0.000  0.017  0.000  0.006  0.000  0.000  0.000  0.000  0.000  0.023
   28  0.000  0.017  0.000  0.006  0.000  0.000  0.000  0.000  0.000  0.023
   29  0.000  0.003  0.000  0.001  0.000  0.000  0.000  0.000  0.000  0.005
   30  0.000  0.017  0.000  0.006  0.000  0.000  0.000  0.000  0.000  0.023
   31  0.000  0.017  0.000  0.006  0.000  0.000  0.000  0.000  0.000  0.023
   32  0.000  0.003  0.000  0.001  0.000  0.000  0.000  0.000  0.000  0.005
   33  0.000  0.003  0.000  0.001  0.000  0.000  0.000  0.000  0.000  0.005
   34  0.000  0.003  0.000  0.001  0.000  0.000  0.000  0.000  0.000  0.005
   35  0.000  0.003  0.000  0.001  0.000  0.000  0.000  0.000  0.000  0.005
   36  0.000  0.003  0.000  0.001  0.000  0.000  0.000  0.000  0.000  0.005
tot    0.000  0.256  0.000  0.085  0.116  0.003  0.000  0.001  0.349  0.811
 
band   128 # energy    1.10311120 # occ.  0.00000000
 
ion      s     py     pz     px    dxy    dyz    dz2    dxz  x2-y2    tot
    1  0.001  0.000  0.000  0.001  0.018  0.000  0.042  0.000  0.006  0.068
    2  0.001  0.000  0.000  0.001  0.018  0.000  0.042  0.000  0.006  0.068
    3  0.001  0.000  0.000  0.001  0.018  0.000  0.042  0.000  0.006  0.068
    4  0.001  0.000  0.000  0.001  0.018  0.000  0.042  0.000  0.006  0.068
    5  0.001  0.000  0.000  0.001  0.018  0.000  0.042  0.000  0.006  0.068
    6  0.001  0.000  0.000  0.001  0.018  0.000  0.042  0.000  0.006  0.068
    7  0.001  0.000  0.000  0.001  0.018  0.000  0.042  0.000  0.006  0.068
    8  0.001  0.000  0.000  0.001  0.018  0.000  0.042  0.000  0.006  0.068
    9  0.001  0.000  0.000  0.001  0.018  0.000  0.042  0.000  0.006  0.068
   10  0.001  0.000  0.000  0.001  0.018  0.000  0.042  0.000  0.006  0.068
   11  0.001  0.000  0.000  0.001  0.018  0.000  0.042  0.000  0.006  0.068
   12  0.001  0.000  0.000  0.001  0.018  0.000  0.042  0.000  0.006  0.068
   13  0.000  0.001  0.000  0.002  0.000  0.000  0.000  0.000  0.000  0.003
   14  0.000  0.001  0.000  0.002  0.000  0.000  0.000  0.000  0.000  0.003
   15  0.000  0.001  0.000  0.002  0.000  0.000  0.000  0.000  0.000  0.003
   16  0.000  0.001  0.000  0.002  0.000  0.000  0.000  0.000  0.000  0.003
   17  0.000  0.001  0.000  0.002  0.000  0.000  0.000  0.000  0.000  0.003
   18  0.000  0.001  0.000  0.002  0.000  0.000  0.000  0.000  0.000  0.003
   19  0.000  0.001  0.000  0.002  0.000  0.000  0.000  0.000  0.000  0.003
   20  0.000  0.001  0.000  0.002  0.000  0.000  0.000  0.000  0.000  0.003
   21  0.000  0.001  0.000  0.002  0.000  0.000  0.000  0.000  0.000  0.003
   22  0.000  0.001  0.000  0.002  0.000  0.000  0.000  0.000  0.000  0.003
   23  0.000  0.001  0.000  0.002  0.000  0.000  0.000  0.000  0.000  0.003
   24  0.000  0.001  0.000  0.002  0.000  0.000  0.000  0.000  0.000  0.003
   25  0.000  0.001  0.000  0.002  0.000  0.000  0.000  0.000  0.000  0.003
   26  0.000  0.001  0.000  0.002  0.000  0.000  0.000  0.000  0.000  0.003
   27  0.000  0.001  0.000  0.002  0.000  0.000  0.000  0.000  0.000  0.003
   28  0.000  0.001  0.000  0.002  0.000  0.000  0.000  0.000  0.000  0.003
   29  0.000  0.001  0.000  0.002  0.000  0.000  0.000  0.000  0.000  0.003
   30  0.000  0.001  0.000  0.002  0.000  0.000  0.000  0.000  0.000  0.003
   31  0.000  0.001  0.000  0.002  0.000  0.000  0.000  0.000  0.000  0.003
   32  0.000  0.001  0.000  0.002  0.000  0.000  0.000  0.000  0.000  0.003
   33  0.000  0.001  0.000  0.002  0.000  0.000  0.000  0.000  0.000  0.003
   34  0.000  0.001  0.000  0.002  0.000  0.000  0.000  0.000  0.000  0.003
   35  0.000  0.001  0.000  0.002  0.000  0.000  0.000  0.000  0.000  0.003
   36  0.000  0.001  0.000  0.002  0.000  0.000  0.000  0.000  0.000  0.003
tot    0.011  0.017  0.009  0.051  0.220  0.001  0.503  0.002  0.073  0.888
 
band   129 # energy    1.12696421 # occ.  0.00000000
 
ion      s     py     pz     px    dxy    dyz    dz2    dxz  x2-y2    tot
    1  0.000  0.000  0.000  0.000  0.000  0.032  0.000  0.029  0.000  0.061
    2  0.000  0.000  0.000  0.000  0.000  0.003  0.000  0.058  0.000  0.061
    3  0.000  0.000  0.000  0.000  0.000  0.003  0.000  0.057  0.000  0.061
    4  0.000  0.000  0.000  0.000  0.000  0.014  0.000  0.005  0.000  0.019
    5  0.000  0.000  0.000  0.000  0.000  0.003  0.000  0.058  0.000  0.061
    6  0.000  0.000  0.000  0.000  0.000  0.032  0.000  0.029  0.000  0.061
    7  0.000  0.000  0.000  0.000  0.000  0.014  0.000  0.005  0.000  0.019
    8  0.000  0.000  0.000  0.000  0.000  0.032  0.000  0.029  0.000  0.061
    9  0.000  0.000  0.000  0.000  0.000  0.014  0.000  0.005  0.000  0.019
   10  0.000  0.000  0.000  0.000  0.000  0.003  0.000  0.057  0.000  0.061
   11  0.000  0.000  0.000  0.000  0.000  0.014  0.000  0.005  0.000  0.019
   12  0.000  0.000  0.000  0.000  0.000  0.032  0.000  0.029  0.000  0.061
   13  0.000  0.003  0.000  0.001  0.000  0.001  0.000  0.000  0.000  0.006
   14  0.003  0.002  0.003  0.000  0.000  0.000  0.000  0.000  0.000  0.009
   15  0.003  0.002  0.003  0.000  0.000  0.000  0.000  0.000  0.000  0.009
   16  0.003  0.000  0.003  0.002  0.001  0.000  0.000  0.000  0.000  0.009
   17  0.003  0.000  0.003  0.002  0.001  0.000  0.000  0.000  0.000  0.009
   18  0.003  0.000  0.003  0.002  0.001  0.000  0.000  0.000  0.000  0.009
   19  0.003  0.000  0.003  0.002  0.001  0.000  0.000  0.000  0.000  0.009
   20  0.000  0.003  0.000  0.001  0.000  0.001  0.000  0.000  0.000  0.006
   21  0.003  0.002  0.003  0.000  0.000  0.000  0.000  0.000  0.000  0.009
   22  0.003  0.002  0.003  0.000  0.000  0.000  0.000  0.000  0.000  0.009
   23  0.000  0.003  0.000  0.001  0.000  0.001  0.000  0.000  0.000  0.006
   24  0.000  0.003  0.000  0.001  0.000  0.001  0.000  0.000  0.000  0.006
   25  0.003  0.002  0.003  0.000  0.000  0.000  0.000  0.000  0.000  0.009
   26  0.003  0.002  0.003  0.000  0.000  0.000  0.000  0.000  0.000  0.009
   27  0.000  0.003  0.000  0.001  0.000  0.001  0.000  0.000  0.000  0.006
   28  0.000  0.003  0.000  0.001  0.000  0.001  0.000  0.000  0.000  0.006
   29  0.003  0.000  0.003  0.002  0.001  0.000  0.000  0.000  0.000  0.009
   30  0.003  0.000  0.003  0.002  0.001  0.000  0.000  0.000  0.000  0.009
   31  0.003  0.000  0.003  0.002  0.001  0.000  0.000  0.000  0.000  0.009
   32  0.003  0.000  0.003  0.002  0.001  0.000  0.000  0.000  0.000  0.009
   33  0.003  0.002  0.003  0.000  0.000  0.000  0.000  0.000  0.000  0.009
   34  0.003  0.002  0.003  0.000  0.000  0.000  0.000  0.000  0.000  0.009
   35  0.000  0.003  0.000  0.001  0.000  0.001  0.000  0.000  0.000  0.006
   36  0.000  0.003  0.000  0.001  0.000  0.001  0.000  0.000  0.000  0.006
tot    0.045  0.043  0.043  0.029  0.008  0.208  0.001  0.370  0.008  0.754
 
band   130 # energy    1.12701748 # occ.  0.00000000
 
ion      s     py     pz     px    dxy    dyz    dz2    dxz  x2-y2    tot
    1  0.000  0.000  0.000  0.000  0.000  0.001  0.000  0.032  0.000  0.033
    2  0.000  0.000  0.000  0.000  0.000  0.030  0.000  0.003  0.000  0.033
    3  0.000  0.000  0.000  0.000  0.000  0.029  0.000  0.003  0.000  0.033
    4  0.000  0.000  0.000  0.000  0.000  0.019  0.000  0.056  0.000  0.075
    5  0.000  0.000  0.000  0.000  0.000  0.030  0.000  0.003  0.000  0.033
    6  0.000  0.000  0.000  0.000  0.000  0.001  0.000  0.032  0.000  0.033
    7  0.000  0.000  0.000  0.000  0.000  0.019  0.000  0.056  0.000  0.076
    8  0.000  0.000  0.000  0.000  0.000  0.001  0.000  0.032  0.000  0.033
    9  0.000  0.000  0.000  0.000  0.000  0.019  0.000  0.056  0.000  0.076
   10  0.000  0.000  0.000  0.000  0.000  0.029  0.000  0.003  0.000  0.033
   11  0.000  0.000  0.000  0.000  0.000  0.019  0.000  0.056  0.000  0.075
   12  0.000  0.000  0.000  0.000  0.000  0.001  0.000  0.032  0.000  0.033
   13  0.004  0.000  0.003  0.001  0.000  0.000  0.000  0.000  0.000  0.010
   14  0.001  0.001  0.001  0.002  0.000  0.000  0.000  0.000  0.000  0.007
   15  0.001  0.001  0.001  0.002  0.000  0.000  0.000  0.000  0.000  0.007
   16  0.001  0.003  0.001  0.000  0.000  0.001  0.000  0.000  0.001  0.007
   17  0.001  0.003  0.001  0.000  0.000  0.001  0.000  0.000  0.001  0.007
   18  0.001  0.003  0.001  0.000  0.000  0.001  0.000  0.000  0.001  0.007
   19  0.001  0.003  0.001  0.000  0.000  0.001  0.000  0.000  0.001  0.007
   20  0.004  0.000  0.003  0.001  0.000  0.000  0.000  0.000  0.000  0.010
   21  0.001  0.001  0.001  0.002  0.000  0.000  0.000  0.000  0.000  0.007
   22  0.001  0.001  0.001  0.002  0.000  0.000  0.000  0.000  0.000  0.007
   23  0.004  0.000  0.003  0.001  0.000  0.000  0.000  0.000  0.000  0.010
   24  0.004  0.000  0.003  0.001  0.000  0.000  0.000  0.000  0.000  0.010
   25  0.001  0.001  0.001  0.002  0.000  0.000  0.000  0.000  0.000  0.007
   26  0.001  0.001  0.001  0.002  0.000  0.000  0.000  0.000  0.000  0.007
   27  0.004  0.000  0.003  0.001  0.000  0.000  0.000  0.000  0.000  0.010
   28  0.004  0.000  0.003  0.001  0.000  0.000  0.000  0.000  0.000  0.010
   29  0.001  0.003  0.001  0.000  0.000  0.001  0.000  0.000  0.001  0.007
   30  0.001  0.003  0.001  0.000  0.000  0.001  0.000  0.000  0.001  0.007
   31  0.001  0.003  0.001  0.000  0.000  0.001  0.000  0.000  0.001  0.007
   32  0.001  0.003  0.001  0.000  0.000  0.001  0.000  0.000  0.001  0.007
   33  0.001  0.001  0.001  0.002  0.000  0.000  0.000  0.000  0.000  0.007
   34  0.001  0.001  0.001  0.002  0.000  0.000  0.000  0.000  0.000  0.007
   35  0.004  0.000  0.003  0.001  0.000  0.000  0.000  0.000  0.000  0.010
   36  0.004  0.000  0.003  0.001  0.000  0.000  0.000  0.000  0.000  0.010
tot    0.045  0.043  0.043  0.029  0.008  0.208  0.001  0.370  0.008  0.754
 
band   131 # energy    1.33797187 # occ.  0.00000000
 
ion      s     py     pz     px    dxy    dyz    dz2    dxz  x2-y2    tot
    1  0.000  0.000  0.001  0.000  0.000  0.001  0.000  0.002  0.000  0.004
    2  0.000  0.000  0.001  0.000  0.000  0.021  0.000  0.063  0.000  0.085
    3  0.000  0.000  0.001  0.000  0.000  0.001  0.000  0.002  0.000  0.004
    4  0.000  0.000  0.001  0.000  0.000  0.001  0.000  0.002  0.000  0.004
    5  0.000  0.000  0.001  0.000  0.000  0.021  0.000  0.063  0.000  0.085
    6  0.000  0.000  0.001  0.000  0.000  0.021  0.000  0.063  0.000  0.085
    7  0.000  0.000  0.001  0.000  0.000  0.021  0.000  0.063  0.000  0.085
    8  0.000  0.000  0.001  0.000  0.000  0.021  0.000  0.063  0.000  0.085
    9  0.000  0.000  0.001  0.000  0.000  0.021  0.000  0.063  0.000  0.085
   10  0.000  0.000  0.001  0.000  0.000  0.001  0.000  0.002  0.000  0.004
   11  0.000  0.000  0.001  0.000  0.000  0.001  0.000  0.002  0.000  0.004
   12  0.000  0.000  0.001  0.000  0.000  0.001  0.000  0.002  0.000  0.004
   13  0.003  0.000  0.001  0.000  0.001  0.000  0.000  0.000  0.000  0.005
   14  0.003  0.000  0.001  0.000  0.001  0.000  0.000  0.000  0.000  0.005
   15  0.003  0.000  0.001  0.000  0.001  0.000  0.000  0.000  0.000  0.005
   16  0.001  0.001  0.005  0.004  0.000  0.000  0.000  0.001  0.000  0.013
   17  0.001  0.001  0.005  0.004  0.000  0.000  0.000  0.001  0.000  0.013
   18  0.003  0.000  0.001  0.000  0.001  0.000  0.000  0.000  0.000  0.005
   19  0.003  0.000  0.001  0.000  0.001  0.000  0.000  0.000  0.000  0.005
   20  0.003  0.000  0.001  0.000  0.001  0.000  0.000  0.000  0.000  0.005
   21  0.003  0.000  0.001  0.000  0.001  0.000  0.000  0.000  0.000  0.005
   22  0.003  0.000  0.001  0.000  0.001  0.000  0.000  0.000  0.000  0.005
   23  0.001  0.001  0.005  0.004  0.000  0.000  0.000  0.001  0.000  0.012
   24  0.001  0.001  0.005  0.004  0.000  0.000  0.000  0.001  0.000  0.012
   25  0.001  0.001  0.005  0.004  0.000  0.000  0.000  0.001  0.000  0.013
   26  0.001  0.001  0.005  0.004  0.000  0.000  0.000  0.001  0.000  0.013
   27  0.003  0.000  0.001  0.000  0.001  0.000  0.000  0.000  0.000  0.005
   28  0.003  0.000  0.001  0.000  0.001  0.000  0.000  0.000  0.000  0.005
   29  0.001  0.001  0.005  0.004  0.000  0.000  0.000  0.001  0.000  0.013
   30  0.003  0.000  0.001  0.000  0.001  0.000  0.000  0.000  0.000  0.005
   31  0.003  0.000  0.001  0.000  0.001  0.000  0.000  0.000  0.000  0.005
   32  0.001  0.001  0.005  0.004  0.000  0.000  0.000  0.001  0.000  0.013
   33  0.001  0.001  0.005  0.004  0.000  0.000  0.000  0.001  0.000  0.013
   34  0.001  0.001  0.005  0.004  0.000  0.000  0.000  0.001  0.000  0.013
   35  0.001  0.001  0.005  0.004  0.000  0.000  0.000  0.001  0.000  0.012
   36  0.001  0.001  0.005  0.004  0.000  0.000  0.000  0.001  0.000  0.012
tot    0.052  0.016  0.081  0.049  0.011  0.134  0.001  0.401  0.004  0.749
 
band   132 # energy    1.33857996 # occ.  0.00000000
 
ion      s     py     pz     px    dxy    dyz    dz2    dxz  x2-y2    tot
    1  0.000  0.000  0.001  0.000  0.000  0.021  0.000  0.063  0.000  0.085
    2  0.000  0.000  0.001  0.000  0.000  0.001  0.000  0.002  0.000  0.004
    3  0.000  0.000  0.001  0.000  0.000  0.021  0.000  0.063  0.000  0.085
    4  0.000  0.000  0.001  0.000  0.000  0.021  0.000  0.063  0.000  0.085
    5  0.000  0.000  0.001  0.000  0.000  0.001  0.000  0.002  0.000  0.004
    6  0.000  0.000  0.001  0.000  0.000  0.001  0.000  0.002  0.000  0.004
    7  0.000  0.000  0.001  0.000  0.000  0.001  0.000  0.002  0.000  0.004
    8  0.000  0.000  0.001  0.000  0.000  0.001  0.000  0.002  0.000  0.004
    9  0.000  0.000  0.001  0.000  0.000  0.001  0.000  0.002  0.000  0.004
   10  0.000  0.000  0.001  0.000  0.000  0.021  0.000  0.063  0.000  0.085
   11  0.000  0.000  0.001  0.000  0.000  0.021  0.000  0.063  0.000  0.085
   12  0.000  0.000  0.001  0.000  0.000  0.021  0.000  0.063  0.000  0.085
   13  0.001  0.001  0.005  0.004  0.000  0.000  0.000  0.001  0.000  0.012
   14  0.001  0.001  0.005  0.004  0.000  0.000  0.000  0.001  0.000  0.013
   15  0.001  0.001  0.005  0.004  0.000  0.000  0.000  0.001  0.000  0.012
   16  0.003  0.000  0.001  0.000  0.001  0.000  0.000  0.000  0.000  0.005
   17  0.003  0.000  0.001  0.000  0.001  0.000  0.000  0.000  0.000  0.005
   18  0.001  0.001  0.005  0.004  0.000  0.000  0.000  0.001  0.000  0.012
   19  0.001  0.001  0.005  0.004  0.000  0.000  0.000  0.001  0.000  0.013
   20  0.001  0.001  0.005  0.004  0.000  0.000  0.000  0.001  0.000  0.012
   21  0.001  0.001  0.005  0.004  0.000  0.000  0.000  0.001  0.000  0.013
   22  0.001  0.001  0.005  0.004  0.000  0.000  0.000  0.001  0.000  0.012
   23  0.003  0.000  0.001  0.000  0.001  0.000  0.000  0.000  0.000  0.005
   24  0.003  0.000  0.001  0.000  0.001  0.000  0.000  0.000  0.000  0.005
   25  0.003  0.000  0.001  0.000  0.001  0.000  0.000  0.000  0.000  0.005
   26  0.003  0.000  0.001  0.000  0.001  0.000  0.000  0.000  0.000  0.005
   27  0.001  0.001  0.005  0.004  0.000  0.000  0.000  0.001  0.000  0.012
   28  0.001  0.001  0.005  0.004  0.000  0.000  0.000  0.001  0.000  0.012
   29  0.003  0.000  0.001  0.000  0.001  0.000  0.000  0.000  0.000  0.005
   30  0.001  0.001  0.005  0.004  0.000  0.000  0.000  0.001  0.000  0.013
   31  0.001  0.001  0.005  0.004  0.000  0.000  0.000  0.001  0.000  0.012
   32  0.003  0.000  0.001  0.000  0.001  0.000  0.000  0.000  0.000  0.005
   33  0.003  0.000  0.001  0.000  0.001  0.000  0.000  0.000  0.000  0.005
   34  0.003  0.000  0.001  0.000  0.001  0.000  0.000  0.000  0.000  0.005
   35  0.003  0.000  0.001  0.000  0.001  0.000  0.000  0.000  0.000  0.005
   36  0.003  0.000  0.001  0.000  0.001  0.000  0.000  0.000  0.000  0.005
tot    0.052  0.016  0.081  0.049  0.011  0.134  0.001  0.401  0.004  0.749
 
band   133 # energy    1.42620832 # occ.  0.00000000
 
ion      s     py     pz     px    dxy    dyz    dz2    dxz  x2-y2    tot
    1  0.000  0.000  0.000  0.000  0.000  0.010  0.000  0.033  0.000  0.044
    2  0.000  0.000  0.000  0.000  0.000  0.043  0.000  0.000  0.000  0.043
    3  0.000  0.000  0.000  0.000  0.000  0.044  0.000  0.000  0.000  0.044
    4  0.000  0.000  0.000  0.000  0.000  0.012  0.000  0.034  0.000  0.046
    5  0.000  0.000  0.000  0.000  0.000  0.043  0.000  0.000  0.000  0.043
    6  0.000  0.000  0.000  0.000  0.000  0.010  0.000  0.033  0.000  0.043
    7  0.000  0.000  0.000  0.000  0.000  0.011  0.000  0.034  0.000  0.045
    8  0.000  0.000  0.000  0.000  0.000  0.010  0.000  0.033  0.000  0.043
    9  0.000  0.000  0.000  0.000  0.000  0.011  0.000  0.034  0.000  0.045
   10  0.000  0.000  0.000  0.000  0.000  0.044  0.000  0.000  0.000  0.044
   11  0.000  0.000  0.000  0.000  0.000  0.012  0.000  0.034  0.000  0.046
   12  0.000  0.000  0.000  0.000  0.000  0.010  0.000  0.033  0.000  0.044
   13  0.000  0.001  0.000  0.004  0.000  0.000  0.000  0.001  0.000  0.008
   14  0.000  0.006  0.000  0.000  0.000  0.002  0.000  0.000  0.000  0.008
   15  0.000  0.006  0.000  0.000  0.000  0.002  0.000  0.000  0.000  0.008
   16  0.000  0.001  0.000  0.004  0.000  0.000  0.000  0.001  0.000  0.008
   17  0.000  0.001  0.000  0.004  0.000  0.000  0.000  0.001  0.000  0.008
   18  0.000  0.001  0.000  0.004  0.000  0.000  0.000  0.001  0.000  0.008
   19  0.000  0.001  0.000  0.004  0.000  0.000  0.000  0.001  0.000  0.008
   20  0.000  0.001  0.000  0.004  0.000  0.000  0.000  0.001  0.000  0.008
   21  0.000  0.006  0.000  0.000  0.000  0.002  0.000  0.000  0.000  0.008
   22  0.000  0.006  0.000  0.000  0.000  0.002  0.000  0.000  0.000  0.008
   23  0.000  0.001  0.000  0.004  0.000  0.000  0.000  0.001  0.000  0.008
   24  0.000  0.001  0.000  0.004  0.000  0.000  0.000  0.001  0.000  0.008
   25  0.000  0.006  0.000  0.000  0.000  0.002  0.000  0.000  0.000  0.008
   26  0.000  0.006  0.000  0.000  0.000  0.002  0.000  0.000  0.000  0.008
   27  0.000  0.001  0.000  0.004  0.000  0.000  0.000  0.001  0.000  0.008
   28  0.000  0.001  0.000  0.004  0.000  0.000  0.000  0.001  0.000  0.008
   29  0.000  0.001  0.000  0.004  0.000  0.000  0.000  0.001  0.000  0.008
   30  0.000  0.001  0.000  0.004  0.000  0.000  0.000  0.001  0.000  0.008
   31  0.000  0.001  0.000  0.004  0.000  0.000  0.000  0.001  0.000  0.008
   32  0.000  0.001  0.000  0.004  0.000  0.000  0.000  0.001  0.000  0.008
   33  0.000  0.006  0.000  0.000  0.000  0.002  0.000  0.000  0.000  0.008
   34  0.000  0.006  0.000  0.000  0.000  0.002  0.000  0.000  0.000  0.008
   35  0.000  0.001  0.000  0.004  0.000  0.000  0.000  0.001  0.000  0.008
   36  0.000  0.001  0.000  0.004  0.000  0.000  0.000  0.001  0.000  0.008
tot    0.000  0.067  0.000  0.068  0.005  0.282  0.000  0.290  0.005  0.716
 
band   134 # energy    1.42622139 # occ.  0.00000000
 
ion      s     py     pz     px    dxy    dyz    dz2    dxz  x2-y2    tot
    1  0.000  0.000  0.000  0.000  0.000  0.033  0.000  0.012  0.000  0.045
    2  0.000  0.000  0.000  0.000  0.000  0.000  0.000  0.045  0.000  0.045
    3  0.000  0.000  0.000  0.000  0.000  0.000  0.000  0.045  0.000  0.045
    4  0.000  0.000  0.000  0.000  0.000  0.032  0.000  0.011  0.000  0.043
    5  0.000  0.000  0.000  0.000  0.000  0.000  0.000  0.045  0.000  0.045
    6  0.000  0.000  0.000  0.000  0.000  0.033  0.000  0.012  0.000  0.045
    7  0.000  0.000  0.000  0.000  0.000  0.032  0.000  0.011  0.000  0.043
    8  0.000  0.000  0.000  0.000  0.000  0.033  0.000  0.012  0.000  0.045
    9  0.000  0.000  0.000  0.000  0.000  0.032  0.000  0.011  0.000  0.043
   10  0.000  0.000  0.000  0.000  0.000  0.000  0.000  0.045  0.000  0.045
   11  0.000  0.000  0.000  0.000  0.000  0.032  0.000  0.011  0.000  0.043
   12  0.000  0.000  0.000  0.000  0.000  0.033  0.000  0.012  0.000  0.045
   13  0.000  0.004  0.000  0.001  0.000  0.001  0.000  0.000  0.000  0.008
   14  0.000  0.000  0.000  0.006  0.000  0.000  0.000  0.002  0.000  0.008
   15  0.000  0.000  0.000  0.006  0.000  0.000  0.000  0.002  0.000  0.008
   16  0.000  0.004  0.000  0.001  0.000  0.001  0.000  0.000  0.000  0.008
   17  0.000  0.004  0.000  0.001  0.000  0.001  0.000  0.000  0.000  0.008
   18  0.000  0.004  0.000  0.001  0.000  0.001  0.000  0.000  0.000  0.008
   19  0.000  0.004  0.000  0.001  0.000  0.001  0.000  0.000  0.000  0.008
   20  0.000  0.004  0.000  0.001  0.000  0.001  0.000  0.000  0.000  0.008
   21  0.000  0.000  0.000  0.006  0.000  0.000  0.000  0.002  0.000  0.008
   22  0.000  0.000  0.000  0.006  0.000  0.000  0.000  0.002  0.000  0.008
   23  0.000  0.004  0.000  0.001  0.000  0.001  0.000  0.000  0.000  0.008
   24  0.000  0.004  0.000  0.001  0.000  0.001  0.000  0.000  0.000  0.008
   25  0.000  0.000  0.000  0.006  0.000  0.000  0.000  0.002  0.000  0.008
   26  0.000  0.000  0.000  0.006  0.000  0.000  0.000  0.002  0.000  0.008
   27  0.000  0.004  0.000  0.001  0.000  0.001  0.000  0.000  0.000  0.008
   28  0.000  0.004  0.000  0.001  0.000  0.001  0.000  0.000  0.000  0.008
   29  0.000  0.004  0.000  0.001  0.000  0.001  0.000  0.000  0.000  0.008
   30  0.000  0.004  0.000  0.001  0.000  0.001  0.000  0.000  0.000  0.008
   31  0.000  0.004  0.000  0.001  0.000  0.001  0.000  0.000  0.000  0.008
   32  0.000  0.004  0.000  0.001  0.000  0.001  0.000  0.000  0.000  0.008
   33  0.000  0.000  0.000  0.006  0.000  0.000  0.000  0.002  0.000  0.008
   34  0.000  0.000  0.000  0.006  0.000  0.000  0.000  0.002  0.000  0.008
   35  0.000  0.004  0.000  0.001  0.000  0.001  0.000  0.000  0.000  0.008
   36  0.000  0.004  0.000  0.001  0.000  0.001  0.000  0.000  0.000  0.008
tot    0.000  0.067  0.000  0.068  0.005  0.282  0.000  0.290  0.005  0.716
 
band   135 # energy    1.67392207 # occ.  0.00000000
 
ion      s     py     pz     px    dxy    dyz    dz2    dxz  x2-y2    tot
    1  0.000  0.000  0.000  0.000  0.000  0.006  0.000  0.019  0.000  0.025
    2  0.000  0.000  0.000  0.000  0.000  0.006  0.000  0.019  0.000  0.025
    3  0.000  0.000  0.000  0.000  0.000  0.006  0.000  0.019  0.000  0.025
    4  0.000  0.000  0.000  0.000  0.000  0.006  0.000  0.019  0.000  0.025
    5  0.000  0.000  0.000  0.000  0.000  0.006  0.000  0.019  0.000  0.025
    6  0.000  0.000  0.000  0.000  0.000  0.006  0.000  0.019  0.000  0.025
    7  0.000  0.000  0.000  0.000  0.000  0.006  0.000  0.019  0.000  0.025
    8  0.000  0.000  0.000  0.000  0.000  0.006  0.000  0.019  0.000  0.025
    9  0.000  0.000  0.000  0.000  0.000  0.006  0.000  0.019  0.000  0.025
   10  0.000  0.000  0.000  0.000  0.000  0.006  0.000  0.019  0.000  0.025
   11  0.000  0.000  0.000  0.000  0.000  0.006  0.000  0.019  0.000  0.025
   12  0.000  0.000  0.000  0.000  0.000  0.006  0.000  0.019  0.000  0.025
   13  0.000  0.005  0.000  0.014  0.001  0.000  0.000  0.000  0.000  0.019
   14  0.000  0.005  0.000  0.014  0.001  0.000  0.000  0.000  0.000  0.019
   15  0.000  0.005  0.000  0.014  0.001  0.000  0.000  0.000  0.000  0.019
   16  0.000  0.005  0.000  0.014  0.001  0.000  0.000  0.000  0.000  0.019
   17  0.000  0.005  0.000  0.014  0.001  0.000  0.000  0.000  0.000  0.019
   18  0.000  0.005  0.000  0.014  0.001  0.000  0.000  0.000  0.000  0.019
   19  0.000  0.005  0.000  0.014  0.001  0.000  0.000  0.000  0.000  0.019
   20  0.000  0.005  0.000  0.014  0.001  0.000  0.000  0.000  0.000  0.019
   21  0.000  0.005  0.000  0.014  0.001  0.000  0.000  0.000  0.000  0.019
   22  0.000  0.005  0.000  0.014  0.001  0.000  0.000  0.000  0.000  0.019
   23  0.000  0.005  0.000  0.014  0.001  0.000  0.000  0.000  0.000  0.019
   24  0.000  0.005  0.000  0.014  0.001  0.000  0.000  0.000  0.000  0.019
   25  0.000  0.005  0.000  0.014  0.001  0.000  0.000  0.000  0.000  0.019
   26  0.000  0.005  0.000  0.014  0.001  0.000  0.000  0.000  0.000  0.019
   27  0.000  0.005  0.000  0.014  0.001  0.000  0.000  0.000  0.000  0.019
   28  0.000  0.005  0.000  0.014  0.001  0.000  0.000  0.000  0.000  0.019
   29  0.000  0.005  0.000  0.014  0.001  0.000  0.000  0.000  0.000  0.019
   30  0.000  0.005  0.000  0.014  0.001  0.000  0.000  0.000  0.000  0.019
   31  0.000  0.005  0.000  0.014  0.001  0.000  0.000  0.000  0.000  0.019
   32  0.000  0.005  0.000  0.014  0.001  0.000  0.000  0.000  0.000  0.019
   33  0.000  0.005  0.000  0.014  0.001  0.000  0.000  0.000  0.000  0.019
   34  0.000  0.005  0.000  0.014  0.001  0.000  0.000  0.000  0.000  0.019
   35  0.000  0.005  0.000  0.014  0.001  0.000  0.000  0.000  0.000  0.019
   36  0.000  0.005  0.000  0.014  0.001  0.000  0.000  0.000  0.000  0.019
tot    0.000  0.112  0.000  0.336  0.013  0.075  0.000  0.224  0.004  0.764
 
band   136 # energy    1.74174939 # occ.  0.00000000
 
ion      s     py     pz     px    dxy    dyz    dz2    dxz  x2-y2    tot
    1  0.000  0.000  0.000  0.000  0.000  0.019  0.000  0.006  0.000  0.025
    2  0.000  0.000  0.000  0.000  0.000  0.019  0.000  0.006  0.000  0.025
    3  0.000  0.000  0.000  0.000  0.000  0.019  0.000  0.006  0.000  0.025
    4  0.000  0.000  0.000  0.000  0.000  0.019  0.000  0.006  0.000  0.025
    5  0.000  0.000  0.000  0.000  0.000  0.019  0.000  0.006  0.000  0.025
    6  0.000  0.000  0.000  0.000  0.000  0.019  0.000  0.006  0.000  0.025
    7  0.000  0.000  0.000  0.000  0.000  0.019  0.000  0.006  0.000  0.025
    8  0.000  0.000  0.000  0.000  0.000  0.019  0.000  0.006  0.000  0.025
    9  0.000  0.000  0.000  0.000  0.000  0.019  0.000  0.006  0.000  0.025
   10  0.000  0.000  0.000  0.000  0.000  0.019  0.000  0.006  0.000  0.025
   11  0.000  0.000  0.000  0.000  0.000  0.019  0.000  0.006  0.000  0.025
   12  0.000  0.000  0.000  0.000  0.000  0.019  0.000  0.006  0.000  0.025
   13  0.000  0.014  0.000  0.005  0.000  0.000  0.000  0.000  0.001  0.019
   14  0.000  0.014  0.000  0.005  0.000  0.000  0.000  0.000  0.001  0.019
   15  0.000  0.014  0.000  0.005  0.000  0.000  0.000  0.000  0.001  0.019
   16  0.000  0.014  0.000  0.005  0.000  0.000  0.000  0.000  0.001  0.019
   17  0.000  0.014  0.000  0.005  0.000  0.000  0.000  0.000  0.001  0.019
   18  0.000  0.014  0.000  0.005  0.000  0.000  0.000  0.000  0.001  0.019
   19  0.000  0.014  0.000  0.005  0.000  0.000  0.000  0.000  0.001  0.019
   20  0.000  0.014  0.000  0.005  0.000  0.000  0.000  0.000  0.001  0.019
   21  0.000  0.014  0.000  0.005  0.000  0.000  0.000  0.000  0.001  0.019
   22  0.000  0.014  0.000  0.005  0.000  0.000  0.000  0.000  0.001  0.019
   23  0.000  0.014  0.000  0.005  0.000  0.000  0.000  0.000  0.001  0.019
   24  0.000  0.014  0.000  0.005  0.000  0.000  0.000  0.000  0.001  0.019
   25  0.000  0.014  0.000  0.005  0.000  0.000  0.000  0.000  0.001  0.019
   26  0.000  0.014  0.000  0.005  0.000  0.000  0.000  0.000  0.001  0.019
   27  0.000  0.014  0.000  0.005  0.000  0.000  0.000  0.000  0.001  0.019
   28  0.000  0.014  0.000  0.005  0.000  0.000  0.000  0.000  0.001  0.019
   29  0.000  0.014  0.000  0.005  0.000  0.000  0.000  0.000  0.001  0.019
   30  0.000  0.014  0.000  0.005  0.000  0.000  0.000  0.000  0.001  0.019
   31  0.000  0.014  0.000  0.005  0.000  0.000  0.000  0.000  0.001  0.019
   32  0.000  0.014  0.000  0.005  0.000  0.000  0.000  0.000  0.001  0.019
   33  0.000  0.014  0.000  0.005  0.000  0.000  0.000  0.000  0.001  0.019
   34  0.000  0.014  0.000  0.005  0.000  0.000  0.000  0.000  0.001  0.019
   35  0.000  0.014  0.000  0.005  0.000  0.000  0.000  0.000  0.001  0.019
   36  0.000  0.014  0.000  0.005  0.000  0.000  0.000  0.000  0.001  0.019
tot    0.000  0.330  0.000  0.110  0.004  0.229  0.000  0.076  0.013  0.764
 
band   137 # energy    1.90240600 # occ.  0.00000000
 
ion      s     py     pz     px    dxy    dyz    dz2    dxz  x2-y2    tot
    1  0.000  0.000  0.000  0.002  0.056  0.000  0.000  0.000  0.000  0.059
    2  0.000  0.002  0.000  0.001  0.014  0.000  0.000  0.000  0.042  0.059
    3  0.000  0.002  0.000  0.001  0.014  0.000  0.000  0.000  0.042  0.059
    4  0.000  0.002  0.000  0.001  0.014  0.000  0.000  0.000  0.042  0.058
    5  0.000  0.002  0.000  0.001  0.014  0.000  0.000  0.000  0.042  0.059
    6  0.000  0.000  0.000  0.002  0.056  0.000  0.000  0.000  0.000  0.059
    7  0.000  0.002  0.000  0.001  0.014  0.000  0.000  0.000  0.042  0.058
    8  0.000  0.000  0.000  0.002  0.056  0.000  0.000  0.000  0.000  0.059
    9  0.000  0.002  0.000  0.001  0.014  0.000  0.000  0.000  0.042  0.058
   10  0.000  0.002  0.000  0.001  0.014  0.000  0.000  0.000  0.042  0.059
   11  0.000  0.002  0.000  0.001  0.014  0.000  0.000  0.000  0.042  0.058
   12  0.000  0.000  0.000  0.002  0.056  0.000  0.000  0.000  0.000  0.059
   13  0.000  0.000  0.000  0.000  0.000  0.000  0.000  0.000  0.000  0.000
   14  0.000  0.000  0.010  0.000  0.000  0.000  0.000  0.000  0.000  0.010
   15  0.000  0.000  0.010  0.000  0.000  0.000  0.000  0.000  0.000  0.010
   16  0.000  0.000  0.010  0.000  0.000  0.000  0.000  0.000  0.000  0.010
   17  0.000  0.000  0.010  0.000  0.000  0.000  0.000  0.000  0.000  0.010
   18  0.000  0.000  0.010  0.000  0.000  0.000  0.000  0.000  0.000  0.010
   19  0.000  0.000  0.010  0.000  0.000  0.000  0.000  0.000  0.000  0.010
   20  0.000  0.000  0.000  0.000  0.000  0.000  0.000  0.000  0.000  0.000
   21  0.000  0.000  0.010  0.000  0.000  0.000  0.000  0.000  0.000  0.010
   22  0.000  0.000  0.010  0.000  0.000  0.000  0.000  0.000  0.000  0.010
   23  0.000  0.000  0.000  0.000  0.000  0.000  0.000  0.000  0.000  0.000
   24  0.000  0.000  0.000  0.000  0.000  0.000  0.000  0.000  0.000  0.000
   25  0.000  0.000  0.010  0.000  0.000  0.000  0.000  0.000  0.000  0.010
   26  0.000  0.000  0.010  0.000  0.000  0.000  0.000  0.000  0.000  0.010
   27  0.000  0.000  0.000  0.000  0.000  0.000  0.000  0.000  0.000  0.000
   28  0.000  0.000  0.000  0.000  0.000  0.000  0.000  0.000  0.000  0.000
   29  0.000  0.000  0.010  0.000  0.000  0.000  0.000  0.000  0.000  0.010
   30  0.000  0.000  0.010  0.000  0.000  0.000  0.000  0.000  0.000  0.010
   31  0.000  0.000  0.010  0.000  0.000  0.000  0.000  0.000  0.000  0.010
   32  0.000  0.000  0.010  0.000  0.000  0.000  0.000  0.000  0.000  0.010
   33  0.000  0.000  0.010  0.000  0.000  0.000  0.000  0.000  0.000  0.010
   34  0.000  0.000  0.010  0.000  0.000  0.000  0.000  0.000  0.000  0.010
   35  0.000  0.000  0.000  0.000  0.000  0.000  0.000  0.000  0.000  0.000
   36  0.000  0.000  0.000  0.000  0.000  0.000  0.000  0.000  0.000  0.000
tot    0.006  0.015  0.154  0.015  0.336  0.000  0.007  0.000  0.335  0.869
 
band   138 # energy    1.90259407 # occ.  0.00000000
 
ion      s     py     pz     px    dxy    dyz    dz2    dxz  x2-y2    tot
    1  0.000  0.003  0.000  0.000  0.000  0.000  0.000  0.000  0.056  0.058
    2  0.000  0.001  0.000  0.002  0.042  0.000  0.000  0.000  0.014  0.058
    3  0.000  0.001  0.000  0.002  0.042  0.000  0.000  0.000  0.014  0.058
    4  0.000  0.001  0.000  0.002  0.042  0.000  0.000  0.000  0.014  0.058
    5  0.000  0.001  0.000  0.002  0.042  0.000  0.000  0.000  0.014  0.058
    6  0.000  0.003  0.000  0.000  0.000  0.000  0.000  0.000  0.056  0.058
    7  0.000  0.001  0.000  0.002  0.042  0.000  0.000  0.000  0.014  0.058
    8  0.000  0.003  0.000  0.000  0.000  0.000  0.000  0.000  0.056  0.058
    9  0.000  0.001  0.000  0.002  0.042  0.000  0.000  0.000  0.014  0.058
   10  0.000  0.001  0.000  0.002  0.042  0.000  0.000  0.000  0.014  0.058
   11  0.000  0.001  0.000  0.002  0.042  0.000  0.000  0.000  0.014  0.058
   12  0.000  0.003  0.000  0.000  0.000  0.000  0.000  0.000  0.056  0.058
   13  0.001  0.000  0.013  0.000  0.000  0.000  0.001  0.000  0.000  0.014
   14  0.000  0.000  0.003  0.000  0.000  0.000  0.000  0.000  0.000  0.003
   15  0.000  0.000  0.003  0.000  0.000  0.000  0.000  0.000  0.000  0.003
   16  0.000  0.000  0.003  0.000  0.000  0.000  0.000  0.000  0.000  0.003
   17  0.000  0.000  0.003  0.000  0.000  0.000  0.000  0.000  0.000  0.003
   18  0.000  0.000  0.003  0.000  0.000  0.000  0.000  0.000  0.000  0.003
   19  0.000  0.000  0.003  0.000  0.000  0.000  0.000  0.000  0.000  0.003
   20  0.001  0.000  0.013  0.000  0.000  0.000  0.001  0.000  0.000  0.014
   21  0.000  0.000  0.003  0.000  0.000  0.000  0.000  0.000  0.000  0.003
   22  0.000  0.000  0.003  0.000  0.000  0.000  0.000  0.000  0.000  0.003
   23  0.001  0.000  0.013  0.000  0.000  0.000  0.001  0.000  0.000  0.014
   24  0.001  0.000  0.013  0.000  0.000  0.000  0.001  0.000  0.000  0.014
   25  0.000  0.000  0.003  0.000  0.000  0.000  0.000  0.000  0.000  0.003
   26  0.000  0.000  0.003  0.000  0.000  0.000  0.000  0.000  0.000  0.003
   27  0.001  0.000  0.013  0.000  0.000  0.000  0.001  0.000  0.000  0.014
   28  0.001  0.000  0.013  0.000  0.000  0.000  0.001  0.000  0.000  0.014
   29  0.000  0.000  0.003  0.000  0.000  0.000  0.000  0.000  0.000  0.003
   30  0.000  0.000  0.003  0.000  0.000  0.000  0.000  0.000  0.000  0.003
   31  0.000  0.000  0.003  0.000  0.000  0.000  0.000  0.000  0.000  0.003
   32  0.000  0.000  0.003  0.000  0.000  0.000  0.000  0.000  0.000  0.003
   33  0.000  0.000  0.003  0.000  0.000  0.000  0.000  0.000  0.000  0.003
   34  0.000  0.000  0.003  0.000  0.000  0.000  0.000  0.000  0.000  0.003
   35  0.001  0.000  0.013  0.000  0.000  0.000  0.001  0.000  0.000  0.014
   36  0.001  0.000  0.013  0.000  0.000  0.000  0.001  0.000  0.000  0.014
tot    0.006  0.015  0.154  0.015  0.336  0.000  0.007  0.000  0.336  0.869
 
band   139 # energy    1.92406651 # occ.  0.00000000
 
ion      s     py     pz     px    dxy    dyz    dz2    dxz  x2-y2    tot
    1  0.000  0.001  0.000  0.000  0.006  0.000  0.000  0.000  0.017  0.024
    2  0.000  0.001  0.000  0.000  0.006  0.000  0.000  0.000  0.017  0.024
    3  0.000  0.001  0.000  0.000  0.006  0.000  0.000  0.000  0.017  0.024
    4  0.000  0.001  0.000  0.000  0.006  0.000  0.000  0.000  0.017  0.024
    5  0.000  0.001  0.000  0.000  0.006  0.000  0.000  0.000  0.017  0.024
    6  0.000  0.001  0.000  0.000  0.006  0.000  0.000  0.000  0.017  0.024
    7  0.000  0.001  0.000  0.000  0.006  0.000  0.000  0.000  0.017  0.024
    8  0.000  0.001  0.000  0.000  0.006  0.000  0.000  0.000  0.017  0.024
    9  0.000  0.001  0.000  0.000  0.006  0.000  0.000  0.000  0.017  0.024
   10  0.000  0.001  0.000  0.000  0.006  0.000  0.000  0.000  0.017  0.024
   11  0.000  0.001  0.000  0.000  0.006  0.000  0.000  0.000  0.017  0.024
   12  0.000  0.001  0.000  0.000  0.006  0.000  0.000  0.000  0.017  0.024
   13  0.000  0.016  0.000  0.005  0.000  0.000  0.000  0.000  0.000  0.021
   14  0.000  0.016  0.000  0.005  0.000  0.000  0.000  0.000  0.000  0.021
   15  0.000  0.016  0.000  0.005  0.000  0.000  0.000  0.000  0.000  0.021
   16  0.000  0.016  0.000  0.005  0.000  0.000  0.000  0.000  0.000  0.021
   17  0.000  0.016  0.000  0.005  0.000  0.000  0.000  0.000  0.000  0.021
   18  0.000  0.016  0.000  0.005  0.000  0.000  0.000  0.000  0.000  0.021
   19  0.000  0.016  0.000  0.005  0.000  0.000  0.000  0.000  0.000  0.021
   20  0.000  0.016  0.000  0.005  0.000  0.000  0.000  0.000  0.000  0.021
   21  0.000  0.016  0.000  0.005  0.000  0.000  0.000  0.000  0.000  0.021
   22  0.000  0.016  0.000  0.005  0.000  0.000  0.000  0.000  0.000  0.021
   23  0.000  0.016  0.000  0.005  0.000  0.000  0.000  0.000  0.000  0.021
   24  0.000  0.016  0.000  0.005  0.000  0.000  0.000  0.000  0.000  0.021
   25  0.000  0.016  0.000  0.005  0.000  0.000  0.000  0.000  0.000  0.021
   26  0.000  0.016  0.000  0.005  0.000  0.000  0.000  0.000  0.000  0.021
   27  0.000  0.016  0.000  0.005  0.000  0.000  0.000  0.000  0.000  0.021
   28  0.000  0.016  0.000  0.005  0.000  0.000  0.000  0.000  0.000  0.021
   29  0.000  0.016  0.000  0.005  0.000  0.000  0.000  0.000  0.000  0.021
   30  0.000  0.016  0.000  0.005  0.000  0.000  0.000  0.000  0.000  0.021
   31  0.000  0.016  0.000  0.005  0.000  0.000  0.000  0.000  0.000  0.021
   32  0.000  0.016  0.000  0.005  0.000  0.000  0.000  0.000  0.000  0.021
   33  0.000  0.016  0.000  0.005  0.000  0.000  0.000  0.000  0.000  0.021
   34  0.000  0.016  0.000  0.005  0.000  0.000  0.000  0.000  0.000  0.021
   35  0.000  0.016  0.000  0.005  0.000  0.000  0.000  0.000  0.000  0.021
   36  0.000  0.016  0.000  0.005  0.000  0.000  0.000  0.000  0.000  0.021
tot    0.000  0.393  0.000  0.131  0.069  0.004  0.000  0.001  0.206  0.804
 
band   140 # energy    1.93493675 # occ.  0.00000000
 
ion      s     py     pz     px    dxy    dyz    dz2    dxz  x2-y2    tot
    1  0.000  0.000  0.000  0.000  0.000  0.003  0.000  0.002  0.000  0.005
    2  0.000  0.000  0.001  0.000  0.000  0.057  0.000  0.048  0.000  0.107
    3  0.000  0.000  0.000  0.000  0.000  0.004  0.000  0.001  0.000  0.005
    4  0.000  0.000  0.000  0.000  0.000  0.000  0.000  0.000  0.000  0.001
    5  0.000  0.000  0.001  0.000  0.000  0.057  0.000  0.048  0.000  0.107
    6  0.000  0.000  0.001  0.000  0.000  0.096  0.000  0.009  0.000  0.107
    7  0.000  0.000  0.004  0.000  0.000  0.005  0.000  0.015  0.000  0.024
    8  0.000  0.000  0.001  0.000  0.000  0.096  0.000  0.009  0.000  0.107
    9  0.000  0.000  0.004  0.000  0.000  0.005  0.000  0.015  0.000  0.024
   10  0.000  0.000  0.000  0.000  0.000  0.004  0.000  0.001  0.000  0.005
   11  0.000  0.000  0.000  0.000  0.000  0.000  0.000  0.000  0.000  0.001
   12  0.000  0.000  0.000  0.000  0.000  0.003  0.000  0.002  0.000  0.005
   13  0.006  0.003  0.015  0.008  0.000  0.000  0.000  0.001  0.000  0.034
   14  0.001  0.001  0.004  0.002  0.000  0.001  0.000  0.000  0.001  0.009
   15  0.001  0.001  0.004  0.002  0.000  0.001  0.000  0.000  0.001  0.009
   16  0.000  0.000  0.000  0.001  0.001  0.000  0.000  0.000  0.000  0.002
   17  0.000  0.000  0.000  0.001  0.001  0.000  0.000  0.000  0.000  0.002
   18  0.001  0.001  0.004  0.002  0.000  0.000  0.000  0.001  0.000  0.009
   19  0.001  0.001  0.004  0.002  0.000  0.000  0.000  0.001  0.000  0.009
   20  0.006  0.003  0.015  0.008  0.000  0.000  0.000  0.001  0.000  0.034
   21  0.001  0.001  0.004  0.002  0.000  0.001  0.000  0.000  0.001  0.009
   22  0.001  0.001  0.004  0.002  0.000  0.001  0.000  0.000  0.001  0.009
   23  0.001  0.000  0.000  0.001  0.000  0.000  0.000  0.001  0.000  0.004
   24  0.001  0.000  0.000  0.001  0.000  0.000  0.000  0.001  0.000  0.004
   25  0.000  0.001  0.000  0.000  0.000  0.000  0.000  0.000  0.001  0.002
   26  0.000  0.001  0.000  0.000  0.000  0.000  0.000  0.000  0.001  0.002
   27  0.006  0.003  0.015  0.008  0.000  0.000  0.000  0.001  0.000  0.034
   28  0.006  0.003  0.015  0.008  0.000  0.000  0.000  0.001  0.000  0.034
   29  0.000  0.000  0.000  0.001  0.001  0.000  0.000  0.000  0.000  0.002
   30  0.001  0.001  0.004  0.002  0.000  0.000  0.000  0.001  0.000  0.009
   31  0.001  0.001  0.004  0.002  0.000  0.000  0.000  0.001  0.000  0.009
   32  0.000  0.000  0.000  0.001  0.001  0.000  0.000  0.000  0.000  0.002
   33  0.000  0.001  0.000  0.000  0.000  0.000  0.000  0.000  0.001  0.002
   34  0.000  0.001  0.000  0.000  0.000  0.000  0.000  0.000  0.001  0.002
   35  0.001  0.000  0.000  0.001  0.000  0.000  0.000  0.001  0.000  0.004
   36  0.001  0.000  0.000  0.001  0.000  0.000  0.000  0.001  0.000  0.004
tot    0.039  0.021  0.104  0.058  0.005  0.338  0.001  0.162  0.009  0.736
 
band   141 # energy    1.93529309 # occ.  0.00000000
 
ion      s     py     pz     px    dxy    dyz    dz2    dxz  x2-y2    tot
    1  0.000  0.000  0.000  0.000  0.000  0.002  0.000  0.000  0.000  0.002
    2  0.000  0.000  0.003  0.000  0.000  0.048  0.000  0.000  0.000  0.051
    3  0.000  0.000  0.000  0.000  0.000  0.001  0.000  0.001  0.000  0.002
    4  0.000  0.000  0.000  0.000  0.000  0.005  0.000  0.002  0.000  0.006
    5  0.000  0.000  0.003  0.000  0.000  0.048  0.000  0.000  0.000  0.051
    6  0.000  0.000  0.003  0.000  0.000  0.009  0.000  0.039  0.000  0.051
    7  0.000  0.000  0.000  0.000  0.000  0.100  0.000  0.034  0.000  0.134
    8  0.000  0.000  0.003  0.000  0.000  0.009  0.000  0.039  0.000  0.051
    9  0.000  0.000  0.000  0.000  0.000  0.100  0.000  0.034  0.000  0.134
   10  0.000  0.000  0.000  0.000  0.000  0.001  0.000  0.001  0.000  0.002
   11  0.000  0.000  0.000  0.000  0.000  0.005  0.000  0.002  0.000  0.006
   12  0.000  0.000  0.000  0.000  0.000  0.002  0.000  0.000  0.000  0.002
   13  0.000  0.000  0.000  0.000  0.000  0.000  0.000  0.000  0.001  0.001
   14  0.004  0.002  0.011  0.006  0.000  0.000  0.000  0.001  0.000  0.026
   15  0.004  0.002  0.011  0.006  0.000  0.000  0.000  0.001  0.000  0.026
   16  0.001  0.001  0.000  0.001  0.000  0.000  0.000  0.001  0.001  0.003
   17  0.001  0.001  0.000  0.001  0.000  0.000  0.000  0.001  0.001  0.003
   18  0.004  0.002  0.011  0.006  0.000  0.001  0.000  0.000  0.000  0.026
   19  0.004  0.002  0.011  0.006  0.000  0.001  0.000  0.000  0.000  0.026
   20  0.000  0.000  0.000  0.000  0.000  0.000  0.000  0.000  0.001  0.001
   21  0.004  0.002  0.011  0.006  0.000  0.000  0.000  0.001  0.000  0.026
   22  0.004  0.002  0.011  0.006  0.000  0.000  0.000  0.001  0.000  0.026
   23  0.000  0.000  0.000  0.000  0.000  0.000  0.000  0.000  0.001  0.002
   24  0.000  0.000  0.000  0.000  0.000  0.000  0.000  0.000  0.001  0.002
   25  0.001  0.000  0.000  0.001  0.001  0.000  0.000  0.000  0.000  0.003
   26  0.001  0.000  0.000  0.001  0.001  0.000  0.000  0.000  0.000  0.003
   27  0.000  0.000  0.000  0.000  0.000  0.000  0.000  0.000  0.001  0.001
   28  0.000  0.000  0.000  0.000  0.000  0.000  0.000  0.000  0.001  0.001
   29  0.001  0.001  0.000  0.001  0.000  0.000  0.000  0.001  0.001  0.003
   30  0.004  0.002  0.011  0.006  0.000  0.001  0.000  0.000  0.000  0.026
   31  0.004  0.002  0.011  0.006  0.000  0.001  0.000  0.000  0.000  0.026
   32  0.001  0.001  0.000  0.001  0.000  0.000  0.000  0.001  0.001  0.003
   33  0.001  0.000  0.000  0.001  0.001  0.000  0.000  0.000  0.000  0.003
   34  0.001  0.000  0.000  0.001  0.001  0.000  0.000  0.000  0.000  0.003
   35  0.000  0.000  0.000  0.000  0.000  0.000  0.000  0.000  0.001  0.002
   36  0.000  0.000  0.000  0.000  0.000  0.000  0.000  0.000  0.001  0.002
tot    0.039  0.021  0.104  0.058  0.005  0.338  0.001  0.162  0.009  0.736
 
band   142 # energy    1.93563369 # occ.  0.00000000
 
ion      s     py     pz     px    dxy    dyz    dz2    dxz  x2-y2    tot
    1  0.000  0.000  0.001  0.000  0.000  0.096  0.000  0.010  0.000  0.107
    2  0.000  0.000  0.000  0.000  0.000  0.004  0.000  0.001  0.000  0.005
    3  0.000  0.000  0.001  0.000  0.000  0.057  0.000  0.048  0.000  0.106
    4  0.000  0.000  0.004  0.000  0.000  0.005  0.000  0.015  0.000  0.024
    5  0.000  0.000  0.000  0.000  0.000  0.004  0.000  0.001  0.000  0.005
    6  0.000  0.000  0.000  0.000  0.000  0.003  0.000  0.002  0.000  0.005
    7  0.000  0.000  0.000  0.000  0.000  0.000  0.000  0.000  0.000  0.001
    8  0.000  0.000  0.000  0.000  0.000  0.003  0.000  0.002  0.000  0.005
    9  0.000  0.000  0.000  0.000  0.000  0.000  0.000  0.000  0.000  0.001
   10  0.000  0.000  0.001  0.000  0.000  0.057  0.000  0.048  0.000  0.106
   11  0.000  0.000  0.004  0.000  0.000  0.005  0.000  0.015  0.000  0.024
   12  0.000  0.000  0.001  0.000  0.000  0.096  0.000  0.010  0.000  0.107
   13  0.001  0.000  0.000  0.001  0.000  0.000  0.000  0.001  0.000  0.004
   14  0.000  0.001  0.000  0.000  0.000  0.000  0.000  0.000  0.001  0.002
   15  0.000  0.001  0.000  0.000  0.000  0.000  0.000  0.000  0.001  0.002
   16  0.001  0.001  0.004  0.002  0.000  0.000  0.000  0.001  0.000  0.009
   17  0.001  0.001  0.004  0.002  0.000  0.000  0.000  0.001  0.000  0.009
   18  0.000  0.000  0.000  0.001  0.001  0.000  0.000  0.000  0.000  0.002
   19  0.000  0.000  0.000  0.001  0.001  0.000  0.000  0.000  0.000  0.002
   20  0.001  0.000  0.000  0.001  0.000  0.000  0.000  0.001  0.000  0.004
   21  0.000  0.001  0.000  0.000  0.000  0.000  0.000  0.000  0.001  0.002
   22  0.000  0.001  0.000  0.000  0.000  0.000  0.000  0.000  0.001  0.002
   23  0.006  0.003  0.015  0.008  0.000  0.000  0.000  0.001  0.000  0.034
   24  0.006  0.003  0.015  0.008  0.000  0.000  0.000  0.001  0.000  0.034
   25  0.001  0.001  0.004  0.002  0.000  0.001  0.000  0.000  0.001  0.009
   26  0.001  0.001  0.004  0.002  0.000  0.001  0.000  0.000  0.001  0.009
   27  0.001  0.000  0.000  0.001  0.000  0.000  0.000  0.001  0.000  0.004
   28  0.001  0.000  0.000  0.001  0.000  0.000  0.000  0.001  0.000  0.004
   29  0.001  0.001  0.004  0.002  0.000  0.000  0.000  0.001  0.000  0.009
   30  0.000  0.000  0.000  0.001  0.001  0.000  0.000  0.000  0.000  0.002
   31  0.000  0.000  0.000  0.001  0.001  0.000  0.000  0.000  0.000  0.002
   32  0.001  0.001  0.004  0.002  0.000  0.000  0.000  0.001  0.000  0.009
   33  0.001  0.001  0.004  0.002  0.000  0.001  0.000  0.000  0.001  0.009
   34  0.001  0.001  0.004  0.002  0.000  0.001  0.000  0.000  0.001  0.009
   35  0.006  0.003  0.015  0.008  0.000  0.000  0.000  0.001  0.000  0.034
   36  0.006  0.003  0.015  0.008  0.000  0.000  0.000  0.001  0.000  0.034
tot    0.039  0.021  0.104  0.058  0.005  0.338  0.001  0.162  0.009  0.736
 
band   143 # energy    1.93599101 # occ.  0.00000000
 
ion      s     py     pz     px    dxy    dyz    dz2    dxz  x2-y2    tot
    1  0.000  0.000  0.003  0.000  0.000  0.009  0.000  0.039  0.000  0.051
    2  0.000  0.000  0.000  0.000  0.000  0.001  0.000  0.001  0.000  0.002
    3  0.000  0.000  0.003  0.000  0.000  0.048  0.000  0.000  0.000  0.051
    4  0.000  0.000  0.000  0.000  0.000  0.100  0.000  0.034  0.000  0.134
    5  0.000  0.000  0.000  0.000  0.000  0.001  0.000  0.001  0.000  0.002
    6  0.000  0.000  0.000  0.000  0.000  0.002  0.000  0.000  0.000  0.002
    7  0.000  0.000  0.000  0.000  0.000  0.005  0.000  0.002  0.000  0.007
    8  0.000  0.000  0.000  0.000  0.000  0.002  0.000  0.000  0.000  0.002
    9  0.000  0.000  0.000  0.000  0.000  0.005  0.000  0.002  0.000  0.007
   10  0.000  0.000  0.003  0.000  0.000  0.048  0.000  0.000  0.000  0.051
   11  0.000  0.000  0.000  0.000  0.000  0.100  0.000  0.034  0.000  0.134
   12  0.000  0.000  0.003  0.000  0.000  0.009  0.000  0.039  0.000  0.051
   13  0.000  0.000  0.000  0.000  0.000  0.000  0.000  0.000  0.001  0.002
   14  0.001  0.000  0.000  0.001  0.001  0.000  0.000  0.000  0.000  0.003
   15  0.001  0.000  0.000  0.001  0.001  0.000  0.000  0.000  0.000  0.003
   16  0.004  0.002  0.011  0.006  0.000  0.001  0.000  0.000  0.000  0.026
   17  0.004  0.002  0.011  0.006  0.000  0.001  0.000  0.000  0.000  0.026
   18  0.001  0.001  0.000  0.001  0.000  0.000  0.000  0.001  0.001  0.003
   19  0.001  0.001  0.000  0.001  0.000  0.000  0.000  0.001  0.001  0.003
   20  0.000  0.000  0.000  0.000  0.000  0.000  0.000  0.000  0.001  0.002
   21  0.001  0.000  0.000  0.001  0.001  0.000  0.000  0.000  0.000  0.003
   22  0.001  0.000  0.000  0.001  0.001  0.000  0.000  0.000  0.000  0.003
   23  0.000  0.000  0.000  0.000  0.000  0.000  0.000  0.000  0.001  0.001
   24  0.000  0.000  0.000  0.000  0.000  0.000  0.000  0.000  0.001  0.001
   25  0.004  0.002  0.011  0.006  0.000  0.000  0.000  0.001  0.000  0.026
   26  0.004  0.002  0.011  0.006  0.000  0.000  0.000  0.001  0.000  0.026
   27  0.000  0.000  0.000  0.000  0.000  0.000  0.000  0.000  0.001  0.002
   28  0.000  0.000  0.000  0.000  0.000  0.000  0.000  0.000  0.001  0.002
   29  0.004  0.002  0.011  0.006  0.000  0.001  0.000  0.000  0.000  0.026
   30  0.001  0.001  0.000  0.001  0.000  0.000  0.000  0.001  0.001  0.003
   31  0.001  0.001  0.000  0.001  0.000  0.000  0.000  0.001  0.001  0.003
   32  0.004  0.002  0.011  0.006  0.000  0.001  0.000  0.000  0.000  0.026
   33  0.004  0.002  0.011  0.006  0.000  0.000  0.000  0.001  0.000  0.026
   34  0.004  0.002  0.011  0.006  0.000  0.000  0.000  0.001  0.000  0.026
   35  0.000  0.000  0.000  0.000  0.000  0.000  0.000  0.000  0.001  0.001
   36  0.000  0.000  0.000  0.000  0.000  0.000  0.000  0.000  0.001  0.001
tot    0.039  0.021  0.104  0.058  0.005  0.338  0.001  0.162  0.009  0.736
 
band   144 # energy    1.95028547 # occ.  0.00000000
 
ion      s     py     pz     px    dxy    dyz    dz2    dxz  x2-y2    tot
    1  0.000  0.000  0.000  0.001  0.017  0.000  0.000  0.000  0.006  0.024
    2  0.000  0.000  0.000  0.001  0.017  0.000  0.000  0.000  0.006  0.024
    3  0.000  0.000  0.000  0.001  0.017  0.000  0.000  0.000  0.006  0.024
    4  0.000  0.000  0.000  0.001  0.017  0.000  0.000  0.000  0.006  0.024
    5  0.000  0.000  0.000  0.001  0.017  0.000  0.000  0.000  0.006  0.024
    6  0.000  0.000  0.000  0.001  0.017  0.000  0.000  0.000  0.006  0.024
    7  0.000  0.000  0.000  0.001  0.017  0.000  0.000  0.000  0.006  0.024
    8  0.000  0.000  0.000  0.001  0.017  0.000  0.000  0.000  0.006  0.024
    9  0.000  0.000  0.000  0.001  0.017  0.000  0.000  0.000  0.006  0.024
   10  0.000  0.000  0.000  0.001  0.017  0.000  0.000  0.000  0.006  0.024
   11  0.000  0.000  0.000  0.001  0.017  0.000  0.000  0.000  0.006  0.024
   12  0.000  0.000  0.000  0.001  0.017  0.000  0.000  0.000  0.006  0.024
   13  0.000  0.005  0.000  0.016  0.000  0.000  0.000  0.000  0.000  0.021
   14  0.000  0.005  0.000  0.016  0.000  0.000  0.000  0.000  0.000  0.021
   15  0.000  0.005  0.000  0.016  0.000  0.000  0.000  0.000  0.000  0.021
   16  0.000  0.005  0.000  0.016  0.000  0.000  0.000  0.000  0.000  0.021
   17  0.000  0.005  0.000  0.016  0.000  0.000  0.000  0.000  0.000  0.021
   18  0.000  0.005  0.000  0.016  0.000  0.000  0.000  0.000  0.000  0.021
   19  0.000  0.005  0.000  0.016  0.000  0.000  0.000  0.000  0.000  0.021
   20  0.000  0.005  0.000  0.016  0.000  0.000  0.000  0.000  0.000  0.021
   21  0.000  0.005  0.000  0.016  0.000  0.000  0.000  0.000  0.000  0.021
   22  0.000  0.005  0.000  0.016  0.000  0.000  0.000  0.000  0.000  0.021
   23  0.000  0.005  0.000  0.016  0.000  0.000  0.000  0.000  0.000  0.021
   24  0.000  0.005  0.000  0.016  0.000  0.000  0.000  0.000  0.000  0.021
   25  0.000  0.005  0.000  0.016  0.000  0.000  0.000  0.000  0.000  0.021
   26  0.000  0.005  0.000  0.016  0.000  0.000  0.000  0.000  0.000  0.021
   27  0.000  0.005  0.000  0.016  0.000  0.000  0.000  0.000  0.000  0.021
   28  0.000  0.005  0.000  0.016  0.000  0.000  0.000  0.000  0.000  0.021
   29  0.000  0.005  0.000  0.016  0.000  0.000  0.000  0.000  0.000  0.021
   30  0.000  0.005  0.000  0.016  0.000  0.000  0.000  0.000  0.000  0.021
   31  0.000  0.005  0.000  0.016  0.000  0.000  0.000  0.000  0.000  0.021
   32  0.000  0.005  0.000  0.016  0.000  0.000  0.000  0.000  0.000  0.021
   33  0.000  0.005  0.000  0.016  0.000  0.000  0.000  0.000  0.000  0.021
   34  0.000  0.005  0.000  0.016  0.000  0.000  0.000  0.000  0.000  0.021
   35  0.000  0.005  0.000  0.016  0.000  0.000  0.000  0.000  0.000  0.021
   36  0.000  0.005  0.000  0.016  0.000  0.000  0.000  0.000  0.000  0.021
tot    0.000  0.131  0.000  0.393  0.207  0.001  0.000  0.004  0.069  0.804
 
band   145 # energy    2.37285268 # occ.  0.00000000
 
ion      s     py     pz     px    dxy    dyz    dz2    dxz  x2-y2    tot
    1  0.000  0.000  0.000  0.000  0.000  0.009  0.000  0.026  0.000  0.035
    2  0.000  0.000  0.000  0.000  0.000  0.009  0.000  0.026  0.000  0.035
    3  0.000  0.000  0.000  0.000  0.000  0.009  0.000  0.026  0.000  0.035
    4  0.000  0.000  0.000  0.000  0.000  0.009  0.000  0.026  0.000  0.035
    5  0.000  0.000  0.000  0.000  0.000  0.009  0.000  0.026  0.000  0.035
    6  0.000  0.000  0.000  0.000  0.000  0.009  0.000  0.026  0.000  0.035
    7  0.000  0.000  0.000  0.000  0.000  0.009  0.000  0.026  0.000  0.035
    8  0.000  0.000  0.000  0.000  0.000  0.009  0.000  0.026  0.000  0.035
    9  0.000  0.000  0.000  0.000  0.000  0.009  0.000  0.026  0.000  0.035
   10  0.000  0.000  0.000  0.000  0.000  0.009  0.000  0.026  0.000  0.035
   11  0.000  0.000  0.000  0.000  0.000  0.009  0.000  0.026  0.000  0.035
   12  0.000  0.000  0.000  0.000  0.000  0.009  0.000  0.026  0.000  0.035
   13  0.002  0.000  0.007  0.001  0.000  0.000  0.000  0.001  0.000  0.011
   14  0.002  0.000  0.007  0.001  0.000  0.000  0.000  0.001  0.000  0.011
   15  0.002  0.000  0.007  0.001  0.000  0.000  0.000  0.001  0.000  0.011
   16  0.002  0.000  0.007  0.001  0.000  0.000  0.000  0.001  0.000  0.011
   17  0.002  0.000  0.007  0.001  0.000  0.000  0.000  0.001  0.000  0.011
   18  0.002  0.000  0.007  0.001  0.000  0.000  0.000  0.001  0.000  0.011
   19  0.002  0.000  0.007  0.001  0.000  0.000  0.000  0.001  0.000  0.011
   20  0.002  0.000  0.007  0.001  0.000  0.000  0.000  0.001  0.000  0.011
   21  0.002  0.000  0.007  0.001  0.000  0.000  0.000  0.001  0.000  0.011
   22  0.002  0.000  0.007  0.001  0.000  0.000  0.000  0.001  0.000  0.011
   23  0.002  0.000  0.007  0.001  0.000  0.000  0.000  0.001  0.000  0.011
   24  0.002  0.000  0.007  0.001  0.000  0.000  0.000  0.001  0.000  0.011
   25  0.002  0.000  0.007  0.001  0.000  0.000  0.000  0.001  0.000  0.011
   26  0.002  0.000  0.007  0.001  0.000  0.000  0.000  0.001  0.000  0.011
   27  0.002  0.000  0.007  0.001  0.000  0.000  0.000  0.001  0.000  0.011
   28  0.002  0.000  0.007  0.001  0.000  0.000  0.000  0.001  0.000  0.011
   29  0.002  0.000  0.007  0.001  0.000  0.000  0.000  0.001  0.000  0.011
   30  0.002  0.000  0.007  0.001  0.000  0.000  0.000  0.001  0.000  0.011
   31  0.002  0.000  0.007  0.001  0.000  0.000  0.000  0.001  0.000  0.011
   32  0.002  0.000  0.007  0.001  0.000  0.000  0.000  0.001  0.000  0.011
   33  0.002  0.000  0.007  0.001  0.000  0.000  0.000  0.001  0.000  0.011
   34  0.002  0.000  0.007  0.001  0.000  0.000  0.000  0.001  0.000  0.011
   35  0.002  0.000  0.007  0.001  0.000  0.000  0.000  0.001  0.000  0.011
   36  0.002  0.000  0.007  0.001  0.000  0.000  0.000  0.001  0.000  0.011
tot    0.048  0.004  0.173  0.012  0.009  0.109  0.000  0.328  0.003  0.686
 
band   146 # energy    2.48962827 # occ.  0.00000000
 
ion      s     py     pz     px    dxy    dyz    dz2    dxz  x2-y2    tot
    1  0.000  0.000  0.000  0.000  0.000  0.004  0.000  0.001  0.000  0.005
    2  0.000  0.000  0.000  0.000  0.000  0.049  0.000  0.016  0.000  0.065
    3  0.000  0.000  0.000  0.000  0.000  0.004  0.000  0.001  0.000  0.005
    4  0.000  0.000  0.000  0.000  0.000  0.004  0.000  0.001  0.000  0.005
    5  0.000  0.000  0.000  0.000  0.000  0.049  0.000  0.016  0.000  0.065
    6  0.000  0.000  0.000  0.000  0.000  0.049  0.000  0.016  0.000  0.065
    7  0.000  0.000  0.000  0.000  0.000  0.049  0.000  0.016  0.000  0.065
    8  0.000  0.000  0.000  0.000  0.000  0.049  0.000  0.016  0.000  0.065
    9  0.000  0.000  0.000  0.000  0.000  0.049  0.000  0.016  0.000  0.065
   10  0.000  0.000  0.000  0.000  0.000  0.004  0.000  0.001  0.000  0.005
   11  0.000  0.000  0.000  0.000  0.000  0.004  0.000  0.001  0.000  0.005
   12  0.000  0.000  0.000  0.000  0.000  0.004  0.000  0.001  0.000  0.005
   13  0.000  0.024  0.000  0.008  0.000  0.001  0.000  0.000  0.000  0.033
   14  0.000  0.024  0.000  0.008  0.000  0.001  0.000  0.000  0.000  0.033
   15  0.000  0.024  0.000  0.008  0.000  0.001  0.000  0.000  0.000  0.033
   16  0.000  0.000  0.000  0.000  0.000  0.000  0.000  0.000  0.000  0.000
   17  0.000  0.000  0.000  0.000  0.000  0.000  0.000  0.000  0.000  0.000
   18  0.000  0.024  0.000  0.008  0.000  0.001  0.000  0.000  0.000  0.033
   19  0.000  0.024  0.000  0.008  0.000  0.001  0.000  0.000  0.000  0.033
   20  0.000  0.024  0.000  0.008  0.000  0.001  0.000  0.000  0.000  0.033
   21  0.000  0.024  0.000  0.008  0.000  0.001  0.000  0.000  0.000  0.033
   22  0.000  0.024  0.000  0.008  0.000  0.001  0.000  0.000  0.000  0.033
   23  0.000  0.000  0.000  0.000  0.000  0.000  0.000  0.000  0.000  0.000
   24  0.000  0.000  0.000  0.000  0.000  0.000  0.000  0.000  0.000  0.000
   25  0.000  0.000  0.000  0.000  0.000  0.000  0.000  0.000  0.000  0.000
   26  0.000  0.000  0.000  0.000  0.000  0.000  0.000  0.000  0.000  0.000
   27  0.000  0.024  0.000  0.008  0.000  0.001  0.000  0.000  0.000  0.033
   28  0.000  0.024  0.000  0.008  0.000  0.001  0.000  0.000  0.000  0.033
   29  0.000  0.000  0.000  0.000  0.000  0.000  0.000  0.000  0.000  0.000
   30  0.000  0.024  0.000  0.008  0.000  0.001  0.000  0.000  0.000  0.033
   31  0.000  0.024  0.000  0.008  0.000  0.001  0.000  0.000  0.000  0.033
   32  0.000  0.000  0.000  0.000  0.000  0.000  0.000  0.000  0.000  0.000
   33  0.000  0.000  0.000  0.000  0.000  0.000  0.000  0.000  0.000  0.000
   34  0.000  0.000  0.000  0.000  0.000  0.000  0.000  0.000  0.000  0.000
   35  0.000  0.000  0.000  0.000  0.000  0.000  0.000  0.000  0.000  0.000
   36  0.000  0.000  0.000  0.000  0.000  0.000  0.000  0.000  0.000  0.000
tot    0.000  0.284  0.000  0.095  0.002  0.322  0.000  0.107  0.006  0.816
 
band   147 # energy    2.49031421 # occ.  0.00000000
 
ion      s     py     pz     px    dxy    dyz    dz2    dxz  x2-y2    tot
    1  0.000  0.000  0.000  0.000  0.000  0.049  0.000  0.016  0.000  0.065
    2  0.000  0.000  0.000  0.000  0.000  0.004  0.000  0.001  0.000  0.005
    3  0.000  0.000  0.000  0.000  0.000  0.049  0.000  0.016  0.000  0.065
    4  0.000  0.000  0.000  0.000  0.000  0.049  0.000  0.016  0.000  0.065
    5  0.000  0.000  0.000  0.000  0.000  0.004  0.000  0.001  0.000  0.005
    6  0.000  0.000  0.000  0.000  0.000  0.004  0.000  0.001  0.000  0.005
    7  0.000  0.000  0.000  0.000  0.000  0.004  0.000  0.001  0.000  0.005
    8  0.000  0.000  0.000  0.000  0.000  0.004  0.000  0.001  0.000  0.005
    9  0.000  0.000  0.000  0.000  0.000  0.004  0.000  0.001  0.000  0.005
   10  0.000  0.000  0.000  0.000  0.000  0.049  0.000  0.016  0.000  0.065
   11  0.000  0.000  0.000  0.000  0.000  0.049  0.000  0.016  0.000  0.065
   12  0.000  0.000  0.000  0.000  0.000  0.049  0.000  0.016  0.000  0.065
   13  0.000  0.000  0.000  0.000  0.000  0.000  0.000  0.000  0.000  0.000
   14  0.000  0.000  0.000  0.000  0.000  0.000  0.000  0.000  0.000  0.000
   15  0.000  0.000  0.000  0.000  0.000  0.000  0.000  0.000  0.000  0.000
   16  0.000  0.024  0.000  0.008  0.000  0.001  0.000  0.000  0.000  0.033
   17  0.000  0.024  0.000  0.008  0.000  0.001  0.000  0.000  0.000  0.033
   18  0.000  0.000  0.000  0.000  0.000  0.000  0.000  0.000  0.000  0.000
   19  0.000  0.000  0.000  0.000  0.000  0.000  0.000  0.000  0.000  0.000
   20  0.000  0.000  0.000  0.000  0.000  0.000  0.000  0.000  0.000  0.000
   21  0.000  0.000  0.000  0.000  0.000  0.000  0.000  0.000  0.000  0.000
   22  0.000  0.000  0.000  0.000  0.000  0.000  0.000  0.000  0.000  0.000
   23  0.000  0.024  0.000  0.008  0.000  0.001  0.000  0.000  0.000  0.033
   24  0.000  0.024  0.000  0.008  0.000  0.001  0.000  0.000  0.000  0.033
   25  0.000  0.024  0.000  0.008  0.000  0.001  0.000  0.000  0.000  0.033
   26  0.000  0.024  0.000  0.008  0.000  0.001  0.000  0.000  0.000  0.033
   27  0.000  0.000  0.000  0.000  0.000  0.000  0.000  0.000  0.000  0.000
   28  0.000  0.000  0.000  0.000  0.000  0.000  0.000  0.000  0.000  0.000
   29  0.000  0.024  0.000  0.008  0.000  0.001  0.000  0.000  0.000  0.033
   30  0.000  0.000  0.000  0.000  0.000  0.000  0.000  0.000  0.000  0.000
   31  0.000  0.000  0.000  0.000  0.000  0.000  0.000  0.000  0.000  0.000
   32  0.000  0.024  0.000  0.008  0.000  0.001  0.000  0.000  0.000  0.033
   33  0.000  0.024  0.000  0.008  0.000  0.001  0.000  0.000  0.000  0.033
   34  0.000  0.024  0.000  0.008  0.000  0.001  0.000  0.000  0.000  0.033
   35  0.000  0.024  0.000  0.008  0.000  0.001  0.000  0.000  0.000  0.033
   36  0.000  0.024  0.000  0.008  0.000  0.001  0.000  0.000  0.000  0.033
tot    0.000  0.284  0.000  0.095  0.002  0.322  0.000  0.107  0.006  0.816
 
band   148 # energy    2.68525392 # occ.  0.00000000
 
ion      s     py     pz     px    dxy    dyz    dz2    dxz  x2-y2    tot
    1  0.000  0.000  0.000  0.000  0.000  0.049  0.000  0.017  0.000  0.066
    2  0.000  0.000  0.000  0.000  0.000  0.003  0.000  0.022  0.000  0.026
    3  0.000  0.000  0.000  0.000  0.000  0.003  0.000  0.022  0.000  0.025
    4  0.000  0.000  0.000  0.000  0.000  0.027  0.000  0.000  0.000  0.027
    5  0.000  0.000  0.000  0.000  0.000  0.003  0.000  0.022  0.000  0.025
    6  0.000  0.000  0.000  0.000  0.000  0.049  0.000  0.017  0.000  0.066
    7  0.000  0.000  0.000  0.000  0.000  0.027  0.000  0.000  0.000  0.028
    8  0.000  0.000  0.000  0.000  0.000  0.048  0.000  0.018  0.000  0.066
    9  0.000  0.000  0.000  0.000  0.000  0.027  0.000  0.000  0.000  0.027
   10  0.000  0.000  0.000  0.000  0.000  0.003  0.000  0.022  0.000  0.026
   11  0.000  0.000  0.000  0.000  0.000  0.027  0.000  0.000  0.000  0.028
   12  0.000  0.000  0.000  0.000  0.000  0.049  0.000  0.017  0.000  0.065
   13  0.001  0.003  0.002  0.013  0.000  0.000  0.000  0.001  0.000  0.020
   14  0.000  0.000  0.000  0.000  0.000  0.000  0.000  0.000  0.000  0.000
   15  0.000  0.000  0.000  0.000  0.000  0.000  0.000  0.000  0.000  0.000
   16  0.001  0.005  0.002  0.011  0.000  0.000  0.000  0.001  0.000  0.021
   17  0.001  0.005  0.002  0.011  0.000  0.000  0.000  0.001  0.000  0.021
   18  0.001  0.005  0.002  0.011  0.000  0.000  0.000  0.001  0.000  0.021
   19  0.001  0.005  0.002  0.011  0.000  0.000  0.000  0.001  0.000  0.021
   20  0.001  0.003  0.002  0.013  0.000  0.000  0.000  0.001  0.000  0.020
   21  0.000  0.000  0.000  0.000  0.000  0.000  0.000  0.000  0.000  0.000
   22  0.000  0.000  0.000  0.000  0.000  0.000  0.000  0.000  0.000  0.000
   23  0.001  0.003  0.002  0.013  0.000  0.000  0.000  0.001  0.000  0.019
   24  0.001  0.003  0.002  0.013  0.000  0.000  0.000  0.001  0.000  0.019
   25  0.000  0.000  0.000  0.000  0.000  0.000  0.000  0.000  0.000  0.000
   26  0.000  0.000  0.000  0.000  0.000  0.000  0.000  0.000  0.000  0.000
   27  0.001  0.003  0.002  0.013  0.000  0.000  0.000  0.001  0.000  0.020
   28  0.001  0.003  0.002  0.013  0.000  0.000  0.000  0.001  0.000  0.020
   29  0.001  0.005  0.002  0.011  0.000  0.000  0.000  0.001  0.000  0.021
   30  0.001  0.005  0.002  0.011  0.000  0.000  0.000  0.001  0.000  0.021
   31  0.001  0.005  0.002  0.011  0.000  0.000  0.000  0.001  0.000  0.021
   32  0.001  0.005  0.002  0.011  0.000  0.000  0.000  0.001  0.000  0.021
   33  0.000  0.000  0.000  0.000  0.000  0.000  0.000  0.000  0.000  0.000
   34  0.000  0.000  0.000  0.000  0.000  0.000  0.000  0.000  0.000  0.000
   35  0.001  0.003  0.002  0.013  0.000  0.000  0.000  0.001  0.000  0.020
   36  0.001  0.003  0.002  0.013  0.000  0.000  0.000  0.001  0.000  0.020
tot    0.011  0.067  0.038  0.194  0.002  0.319  0.001  0.167  0.001  0.799
 
band   149 # energy    2.68545042 # occ.  0.00000000
 
ion      s     py     pz     px    dxy    dyz    dz2    dxz  x2-y2    tot
    1  0.000  0.000  0.000  0.000  0.000  0.004  0.000  0.008  0.000  0.013
    2  0.000  0.000  0.000  0.000  0.000  0.050  0.000  0.006  0.000  0.057
    3  0.000  0.000  0.000  0.000  0.000  0.051  0.000  0.003  0.000  0.055
    4  0.000  0.000  0.000  0.000  0.000  0.026  0.000  0.021  0.000  0.048
    5  0.000  0.000  0.000  0.000  0.000  0.048  0.000  0.003  0.000  0.051
    6  0.000  0.000  0.000  0.000  0.000  0.005  0.000  0.014  0.000  0.020
    7  0.000  0.000  0.000  0.000  0.000  0.022  0.000  0.029  0.000  0.050
    8  0.000  0.000  0.000  0.000  0.000  0.003  0.000  0.005  0.000  0.008
    9  0.000  0.000  0.000  0.000  0.000  0.029  0.000  0.023  0.000  0.053
   10  0.000  0.000  0.000  0.000  0.000  0.047  0.000  0.005  0.000  0.052
   11  0.000  0.000  0.000  0.000  0.000  0.024  0.000  0.030  0.000  0.055
   12  0.000  0.000  0.000  0.000  0.000  0.004  0.000  0.010  0.000  0.014
   13  0.000  0.002  0.001  0.004  0.000  0.000  0.000  0.000  0.000  0.007
   14  0.001  0.006  0.003  0.016  0.000  0.000  0.000  0.001  0.000  0.027
   15  0.001  0.006  0.003  0.016  0.000  0.000  0.000  0.001  0.000  0.027
   16  0.000  0.000  0.001  0.005  0.000  0.000  0.000  0.000  0.000  0.006
   17  0.000  0.000  0.001  0.005  0.000  0.000  0.000  0.000  0.000  0.006
   18  0.000  0.001  0.001  0.005  0.000  0.000  0.000  0.000  0.000  0.007
   19  0.000  0.001  0.001  0.005  0.000  0.000  0.000  0.000  0.000  0.007
   20  0.000  0.002  0.001  0.004  0.000  0.000  0.000  0.000  0.000  0.007
   21  0.001  0.005  0.003  0.016  0.000  0.000  0.000  0.001  0.000  0.026
   22  0.001  0.005  0.003  0.016  0.000  0.000  0.000  0.001  0.000  0.026
   23  0.000  0.002  0.001  0.003  0.000  0.000  0.000  0.000  0.000  0.007
   24  0.000  0.002  0.001  0.003  0.000  0.000  0.000  0.000  0.000  0.007
   25  0.001  0.004  0.004  0.015  0.000  0.000  0.000  0.001  0.000  0.025
   26  0.001  0.004  0.004  0.015  0.000  0.000  0.000  0.001  0.000  0.025
   27  0.000  0.003  0.001  0.003  0.000  0.000  0.000  0.000  0.000  0.008
   28  0.000  0.003  0.001  0.003  0.000  0.000  0.000  0.000  0.000  0.008
   29  0.000  0.001  0.001  0.005  0.000  0.000  0.000  0.000  0.000  0.007
   30  0.000  0.000  0.001  0.005  0.000  0.000  0.000  0.000  0.000  0.006
   31  0.000  0.000  0.001  0.005  0.000  0.000  0.000  0.000  0.000  0.006
   32  0.000  0.001  0.001  0.005  0.000  0.000  0.000  0.000  0.000  0.007
   33  0.001  0.007  0.002  0.017  0.000  0.000  0.000  0.001  0.000  0.029
   34  0.001  0.007  0.002  0.017  0.000  0.000  0.000  0.001  0.000  0.029
   35  0.000  0.003  0.001  0.004  0.000  0.000  0.000  0.000  0.000  0.008
   36  0.000  0.003  0.001  0.004  0.000  0.000  0.000  0.000  0.000  0.008
tot    0.011  0.068  0.039  0.193  0.002  0.317  0.001  0.168  0.001  0.799
 
band   150 # energy    2.71283489 # occ.  0.00000000
 
ion      s     py     pz     px    dxy    dyz    dz2    dxz  x2-y2    tot
    1  0.000  0.000  0.000  0.000  0.000  0.000  0.000  0.001  0.000  0.001
    2  0.000  0.000  0.000  0.000  0.000  0.040  0.000  0.075  0.000  0.115
    3  0.000  0.000  0.000  0.000  0.000  0.003  0.000  0.011  0.000  0.014
    4  0.000  0.000  0.000  0.000  0.000  0.003  0.000  0.005  0.000  0.008
    5  0.000  0.000  0.000  0.000  0.000  0.040  0.000  0.075  0.000  0.115
    6  0.000  0.000  0.000  0.000  0.000  0.024  0.000  0.000  0.000  0.024
    7  0.000  0.000  0.000  0.000  0.000  0.002  0.000  0.070  0.000  0.072
    8  0.000  0.000  0.000  0.000  0.000  0.024  0.000  0.000  0.000  0.024
    9  0.000  0.000  0.000  0.000  0.000  0.002  0.000  0.070  0.000  0.072
   10  0.000  0.000  0.000  0.000  0.000  0.003  0.000  0.011  0.000  0.014
   11  0.000  0.000  0.000  0.000  0.000  0.003  0.000  0.005  0.000  0.008
   12  0.000  0.000  0.000  0.000  0.000  0.000  0.000  0.001  0.000  0.001
   13  0.000  0.007  0.000  0.002  0.000  0.001  0.000  0.000  0.000  0.010
   14  0.000  0.012  0.000  0.004  0.000  0.002  0.000  0.001  0.000  0.019
   15  0.000  0.012  0.000  0.004  0.000  0.002  0.000  0.001  0.000  0.019
   16  0.002  0.004  0.007  0.016  0.000  0.000  0.000  0.000  0.000  0.029
   17  0.002  0.004  0.007  0.016  0.000  0.000  0.000  0.000  0.000  0.029
   18  0.000  0.001  0.000  0.001  0.000  0.000  0.000  0.000  0.000  0.002
   19  0.000  0.001  0.000  0.001  0.000  0.000  0.000  0.000  0.000  0.002
   20  0.000  0.007  0.000  0.002  0.000  0.001  0.000  0.000  0.000  0.010
   21  0.000  0.012  0.000  0.004  0.000  0.002  0.000  0.001  0.000  0.019
   22  0.000  0.012  0.000  0.004  0.000  0.002  0.000  0.001  0.000  0.019
   23  0.001  0.005  0.004  0.006  0.000  0.000  0.000  0.000  0.000  0.017
   24  0.001  0.005  0.004  0.006  0.000  0.000  0.000  0.000  0.000  0.017
   25  0.000  0.000  0.000  0.002  0.000  0.000  0.000  0.000  0.000  0.003
   26  0.000  0.000  0.000  0.002  0.000  0.000  0.000  0.000  0.000  0.003
   27  0.000  0.007  0.000  0.002  0.000  0.001  0.000  0.000  0.000  0.010
   28  0.000  0.007  0.000  0.002  0.000  0.001  0.000  0.000  0.000  0.010
   29  0.002  0.004  0.007  0.016  0.000  0.000  0.000  0.000  0.000  0.029
   30  0.000  0.001  0.000  0.001  0.000  0.000  0.000  0.000  0.000  0.002
   31  0.000  0.001  0.000  0.001  0.000  0.000  0.000  0.000  0.000  0.002
   32  0.002  0.004  0.007  0.016  0.000  0.000  0.000  0.000  0.000  0.029
   33  0.000  0.000  0.000  0.002  0.000  0.000  0.000  0.000  0.000  0.003
   34  0.000  0.000  0.000  0.002  0.000  0.000  0.000  0.000  0.000  0.003
   35  0.001  0.005  0.004  0.006  0.000  0.000  0.000  0.000  0.000  0.017
   36  0.001  0.005  0.004  0.006  0.000  0.000  0.000  0.000  0.000  0.017
tot    0.011  0.113  0.052  0.123  0.002  0.157  0.000  0.330  0.001  0.790
 
band   151 # energy    2.71303779 # occ.  0.00000000
 
ion      s     py     pz     px    dxy    dyz    dz2    dxz  x2-y2    tot
    1  0.000  0.000  0.000  0.000  0.000  0.029  0.000  0.004  0.000  0.033
    2  0.000  0.000  0.000  0.000  0.000  0.007  0.000  0.000  0.000  0.007
    3  0.000  0.000  0.000  0.000  0.000  0.035  0.000  0.065  0.000  0.100
    4  0.000  0.000  0.000  0.000  0.000  0.000  0.000  0.036  0.000  0.036
    5  0.000  0.000  0.000  0.000  0.000  0.007  0.000  0.000  0.000  0.007
    6  0.000  0.000  0.000  0.000  0.000  0.004  0.000  0.014  0.000  0.018
    7  0.000  0.000  0.000  0.000  0.000  0.020  0.000  0.020  0.000  0.040
    8  0.000  0.000  0.000  0.000  0.000  0.004  0.000  0.014  0.000  0.018
    9  0.000  0.000  0.000  0.000  0.000  0.020  0.000  0.020  0.000  0.040
   10  0.000  0.000  0.000  0.000  0.000  0.035  0.000  0.065  0.000  0.100
   11  0.000  0.000  0.000  0.000  0.000  0.000  0.000  0.036  0.000  0.036
   12  0.000  0.000  0.000  0.000  0.000  0.029  0.000  0.004  0.000  0.033
   13  0.000  0.000  0.002  0.008  0.000  0.000  0.000  0.000  0.000  0.012
   14  0.000  0.000  0.001  0.002  0.000  0.000  0.000  0.000  0.000  0.004
   15  0.000  0.000  0.001  0.002  0.000  0.000  0.000  0.000  0.000  0.004
   16  0.000  0.000  0.000  0.001  0.000  0.000  0.000  0.000  0.000  0.001
   17  0.000  0.000  0.000  0.001  0.000  0.000  0.000  0.000  0.000  0.001
   18  0.001  0.000  0.006  0.020  0.000  0.000  0.000  0.001  0.000  0.029
   19  0.001  0.000  0.006  0.020  0.000  0.000  0.000  0.001  0.000  0.029
   20  0.000  0.000  0.002  0.008  0.000  0.000  0.000  0.000  0.000  0.012
   21  0.000  0.000  0.001  0.002  0.000  0.000  0.000  0.000  0.000  0.004
   22  0.000  0.000  0.001  0.002  0.000  0.000  0.000  0.000  0.000  0.004
   23  0.000  0.003  0.002  0.007  0.000  0.001  0.000  0.001  0.000  0.015
   24  0.000  0.003  0.002  0.007  0.000  0.001  0.000  0.001  0.000  0.015
   25  0.000  0.003  0.001  0.013  0.000  0.001  0.000  0.001  0.000  0.020
   26  0.000  0.003  0.001  0.013  0.000  0.001  0.000  0.001  0.000  0.020
   27  0.000  0.000  0.002  0.009  0.000  0.000  0.000  0.000  0.000  0.012
   28  0.000  0.000  0.002  0.009  0.000  0.000  0.000  0.000  0.000  0.012
   29  0.000  0.000  0.000  0.001  0.000  0.000  0.000  0.000  0.000  0.001
   30  0.001  0.000  0.006  0.020  0.000  0.000  0.000  0.001  0.000  0.029
   31  0.001  0.000  0.006  0.020  0.000  0.000  0.000  0.001  0.000  0.029
   32  0.000  0.000  0.000  0.001  0.000  0.000  0.000  0.000  0.000  0.001
   33  0.000  0.003  0.001  0.013  0.000  0.001  0.000  0.001  0.000  0.020
   34  0.000  0.003  0.001  0.013  0.000  0.001  0.000  0.001  0.000  0.020
   35  0.000  0.003  0.002  0.007  0.000  0.001  0.000  0.001  0.000  0.015
   36  0.000  0.003  0.002  0.007  0.000  0.001  0.000  0.001  0.000  0.015
tot    0.011  0.031  0.052  0.205  0.002  0.196  0.000  0.292  0.001  0.790
 
band   152 # energy    2.71309590 # occ.  0.00000000
 
ion      s     py     pz     px    dxy    dyz    dz2    dxz  x2-y2    tot
    1  0.000  0.000  0.000  0.000  0.000  0.018  0.000  0.098  0.000  0.117
    2  0.000  0.000  0.000  0.000  0.000  0.001  0.000  0.000  0.000  0.001
    3  0.000  0.000  0.000  0.000  0.000  0.005  0.000  0.018  0.000  0.023
    4  0.000  0.000  0.000  0.000  0.000  0.043  0.000  0.032  0.000  0.076
    5  0.000  0.000  0.000  0.000  0.000  0.001  0.000  0.000  0.000  0.001
    6  0.000  0.000  0.000  0.000  0.000  0.003  0.000  0.008  0.000  0.011
    7  0.000  0.000  0.000  0.000  0.000  0.001  0.000  0.006  0.000  0.007
    8  0.000  0.000  0.000  0.000  0.000  0.003  0.000  0.008  0.000  0.011
    9  0.000  0.000  0.000  0.000  0.000  0.001  0.000  0.006  0.000  0.007
   10  0.000  0.000  0.000  0.000  0.000  0.005  0.000  0.018  0.000  0.023
   11  0.000  0.000  0.000  0.000  0.000  0.043  0.000  0.032  0.000  0.076
   12  0.000  0.000  0.000  0.000  0.000  0.018  0.000  0.098  0.000  0.117
   13  0.001  0.002  0.004  0.010  0.000  0.000  0.000  0.000  0.000  0.017
   14  0.002  0.006  0.007  0.013  0.000  0.000  0.000  0.000  0.000  0.029
   15  0.002  0.006  0.007  0.013  0.000  0.000  0.000  0.000  0.000  0.029
   16  0.000  0.013  0.000  0.004  0.000  0.002  0.000  0.001  0.000  0.019
   17  0.000  0.013  0.000  0.004  0.000  0.002  0.000  0.001  0.000  0.019
   18  0.000  0.001  0.000  0.000  0.000  0.000  0.000  0.000  0.000  0.002
   19  0.000  0.001  0.000  0.000  0.000  0.000  0.000  0.000  0.000  0.002
   20  0.001  0.002  0.004  0.010  0.000  0.000  0.000  0.000  0.000  0.017
   21  0.002  0.006  0.007  0.013  0.000  0.000  0.000  0.000  0.000  0.029
   22  0.002  0.006  0.007  0.013  0.000  0.000  0.000  0.000  0.000  0.029
   23  0.000  0.006  0.000  0.003  0.000  0.001  0.000  0.000  0.000  0.010
   24  0.000  0.006  0.000  0.003  0.000  0.001  0.000  0.000  0.000  0.010
   25  0.000  0.002  0.000  0.000  0.000  0.000  0.000  0.000  0.000  0.002
   26  0.000  0.002  0.000  0.000  0.000  0.000  0.000  0.000  0.000  0.002
   27  0.001  0.002  0.004  0.010  0.000  0.000  0.000  0.000  0.000  0.017
   28  0.001  0.002  0.004  0.010  0.000  0.000  0.000  0.000  0.000  0.017
   29  0.000  0.013  0.000  0.004  0.000  0.002  0.000  0.001  0.000  0.019
   30  0.000  0.001  0.000  0.000  0.000  0.000  0.000  0.000  0.000  0.002
   31  0.000  0.001  0.000  0.000  0.000  0.000  0.000  0.000  0.000  0.002
   32  0.000  0.013  0.000  0.004  0.000  0.002  0.000  0.001  0.000  0.019
   33  0.000  0.002  0.000  0.000  0.000  0.000  0.000  0.000  0.000  0.002
   34  0.000  0.002  0.000  0.000  0.000  0.000  0.000  0.000  0.000  0.002
   35  0.000  0.006  0.000  0.003  0.000  0.001  0.000  0.000  0.000  0.010
   36  0.000  0.006  0.000  0.003  0.000  0.001  0.000  0.000  0.000  0.010
tot    0.011  0.115  0.052  0.121  0.002  0.157  0.000  0.331  0.001  0.790
 
